% instance_n26_c2_k14_i93.dzn
% Generated instance for the Trucks problem
% N=26, h=6, k=14

% Number of nodes
N = 26;

% Number of objects
h = 6;

% Maximum plan length
%k = 14;

% Adjacency matrix (0-based internal, will be converted to 1-based)
Adj = [|0, 1, 0, 1, 0, 0, 0, 1, 0, 0, 0, 0, 0, 0, 0, 0, 0, 0, 0, 0, 1, 0, 0, 0, 0, 0
      |1, 0, 0, 0, 0, 0, 0, 0, 0, 1, 0, 0, 1, 0, 0, 0, 0, 0, 0, 0, 0, 0, 0, 1, 0, 0
      |0, 0, 0, 0, 0, 0, 0, 0, 0, 0, 0, 0, 0, 0, 0, 0, 0, 1, 0, 0, 1, 0, 0, 0, 0, 0
      |1, 0, 0, 0, 1, 0, 0, 1, 0, 0, 0, 1, 0, 1, 1, 0, 0, 0, 1, 0, 0, 1, 0, 0, 0, 0
      |0, 0, 0, 1, 0, 0, 0, 0, 0, 0, 0, 0, 0, 0, 0, 0, 0, 0, 0, 0, 0, 0, 0, 0, 0, 0
      |0, 0, 0, 0, 0, 0, 0, 0, 0, 0, 0, 0, 0, 0, 0, 0, 0, 1, 0, 0, 0, 0, 0, 1, 0, 0
      |0, 0, 0, 0, 0, 0, 0, 0, 0, 0, 0, 0, 0, 0, 0, 0, 0, 0, 0, 0, 1, 0, 0, 0, 0, 0
      |1, 0, 0, 1, 0, 0, 0, 0, 0, 0, 0, 0, 0, 0, 0, 0, 0, 1, 0, 0, 0, 0, 0, 0, 0, 0
      |0, 0, 0, 0, 0, 0, 0, 0, 0, 1, 0, 1, 0, 0, 0, 0, 1, 0, 0, 0, 0, 0, 0, 0, 0, 0
      |0, 1, 0, 0, 0, 0, 0, 0, 1, 0, 0, 0, 0, 0, 0, 0, 0, 0, 0, 0, 0, 0, 0, 0, 0, 0
      |0, 0, 0, 0, 0, 0, 0, 0, 0, 0, 0, 0, 0, 0, 0, 0, 0, 1, 1, 0, 0, 0, 0, 0, 1, 0
      |0, 0, 0, 1, 0, 0, 0, 0, 1, 0, 0, 0, 0, 0, 0, 0, 0, 0, 1, 1, 0, 0, 0, 0, 0, 0
      |0, 1, 0, 0, 0, 0, 0, 0, 0, 0, 0, 0, 0, 0, 0, 0, 0, 0, 0, 0, 0, 0, 1, 0, 0, 0
      |0, 0, 0, 1, 0, 0, 0, 0, 0, 0, 0, 0, 0, 0, 0, 0, 0, 0, 0, 0, 0, 0, 0, 0, 0, 0
      |0, 0, 0, 1, 0, 0, 0, 0, 0, 0, 0, 0, 0, 0, 0, 0, 0, 0, 0, 0, 0, 0, 0, 0, 0, 0
      |0, 0, 0, 0, 0, 0, 0, 0, 0, 0, 0, 0, 0, 0, 0, 0, 0, 0, 0, 0, 1, 1, 0, 0, 0, 0
      |0, 0, 0, 0, 0, 0, 0, 0, 1, 0, 0, 0, 0, 0, 0, 0, 0, 0, 0, 0, 1, 0, 0, 0, 0, 0
      |0, 0, 1, 0, 0, 1, 0, 1, 0, 0, 1, 0, 0, 0, 0, 0, 0, 0, 0, 0, 0, 0, 0, 0, 1, 0
      |0, 0, 0, 1, 0, 0, 0, 0, 0, 0, 1, 1, 0, 0, 0, 0, 0, 0, 0, 0, 0, 0, 1, 0, 0, 0
      |0, 0, 0, 0, 0, 0, 0, 0, 0, 0, 0, 1, 0, 0, 0, 0, 0, 0, 0, 0, 0, 0, 0, 0, 0, 0
      |1, 0, 1, 0, 0, 0, 1, 0, 0, 0, 0, 0, 0, 0, 0, 1, 1, 0, 0, 0, 0, 0, 0, 0, 0, 0
      |0, 0, 0, 1, 0, 0, 0, 0, 0, 0, 0, 0, 0, 0, 0, 1, 0, 0, 0, 0, 0, 0, 0, 0, 0, 0
      |0, 0, 0, 0, 0, 0, 0, 0, 0, 0, 0, 0, 1, 0, 0, 0, 0, 0, 1, 0, 0, 0, 0, 0, 0, 0
      |0, 1, 0, 0, 0, 1, 0, 0, 0, 0, 0, 0, 0, 0, 0, 0, 0, 0, 0, 0, 0, 0, 0, 0, 0, 1
      |0, 0, 0, 0, 0, 0, 0, 0, 0, 0, 1, 0, 0, 0, 0, 0, 0, 1, 0, 0, 0, 0, 0, 0, 0, 0
      |0, 0, 0, 0, 0, 0, 0, 0, 0, 0, 0, 0, 0, 0, 0, 0, 0, 0, 0, 0, 0, 0, 0, 1, 0, 0
      |];

% Weights matrix (edge weights)
% Weights = [|0, 2, 0, 5, 0, 0, 0, 5, 0, 0, 0, 0, 0, 0, 0, 0, 0, 0, 0, 0, 2, 0, 0, 0, 0, 0
%           |2, 0, 0, 0, 0, 0, 0, 0, 0, 4, 0, 0, 4, 0, 0, 0, 0, 0, 0, 0, 0, 0, 0, 4, 0, 0
%           |0, 0, 0, 0, 0, 0, 0, 0, 0, 0, 0, 0, 0, 0, 0, 0, 0, 5, 0, 0, 2, 0, 0, 0, 0, 0
%           |5, 0, 0, 0, 5, 0, 0, 4, 0, 0, 0, 5, 0, 3, 2, 0, 0, 0, 2, 0, 0, 2, 0, 0, 0, 0
%           |0, 0, 0, 5, 0, 0, 0, 0, 0, 0, 0, 0, 0, 0, 0, 0, 0, 0, 0, 0, 0, 0, 0, 0, 0, 0
%           |0, 0, 0, 0, 0, 0, 0, 0, 0, 0, 0, 0, 0, 0, 0, 0, 0, 2, 0, 0, 0, 0, 0, 3, 0, 0
%           |0, 0, 0, 0, 0, 0, 0, 0, 0, 0, 0, 0, 0, 0, 0, 0, 0, 0, 0, 0, 4, 0, 0, 0, 0, 0
%           |5, 0, 0, 4, 0, 0, 0, 0, 0, 0, 0, 0, 0, 0, 0, 0, 0, 4, 0, 0, 0, 0, 0, 0, 0, 0
%           |0, 0, 0, 0, 0, 0, 0, 0, 0, 4, 0, 2, 0, 0, 0, 0, 5, 0, 0, 0, 0, 0, 0, 0, 0, 0
%           |0, 4, 0, 0, 0, 0, 0, 0, 4, 0, 0, 0, 0, 0, 0, 0, 0, 0, 0, 0, 0, 0, 0, 0, 0, 0
%           |0, 0, 0, 0, 0, 0, 0, 0, 0, 0, 0, 0, 0, 0, 0, 0, 0, 4, 2, 0, 0, 0, 0, 0, 3, 0
%           |0, 0, 0, 5, 0, 0, 0, 0, 2, 0, 0, 0, 0, 0, 0, 0, 0, 0, 5, 3, 0, 0, 0, 0, 0, 0
%           |0, 4, 0, 0, 0, 0, 0, 0, 0, 0, 0, 0, 0, 0, 0, 0, 0, 0, 0, 0, 0, 0, 2, 0, 0, 0
%           |0, 0, 0, 3, 0, 0, 0, 0, 0, 0, 0, 0, 0, 0, 0, 0, 0, 0, 0, 0, 0, 0, 0, 0, 0, 0
%           |0, 0, 0, 2, 0, 0, 0, 0, 0, 0, 0, 0, 0, 0, 0, 0, 0, 0, 0, 0, 0, 0, 0, 0, 0, 0
%           |0, 0, 0, 0, 0, 0, 0, 0, 0, 0, 0, 0, 0, 0, 0, 0, 0, 0, 0, 0, 4, 2, 0, 0, 0, 0
%           |0, 0, 0, 0, 0, 0, 0, 0, 5, 0, 0, 0, 0, 0, 0, 0, 0, 0, 0, 0, 2, 0, 0, 0, 0, 0
%           |0, 0, 5, 0, 0, 2, 0, 4, 0, 0, 4, 0, 0, 0, 0, 0, 0, 0, 0, 0, 0, 0, 0, 0, 1, 0
%           |0, 0, 0, 2, 0, 0, 0, 0, 0, 0, 2, 5, 0, 0, 0, 0, 0, 0, 0, 0, 0, 0, 5, 0, 0, 0
%           |0, 0, 0, 0, 0, 0, 0, 0, 0, 0, 0, 3, 0, 0, 0, 0, 0, 0, 0, 0, 0, 0, 0, 0, 0, 0
%           |2, 0, 2, 0, 0, 0, 4, 0, 0, 0, 0, 0, 0, 0, 0, 4, 2, 0, 0, 0, 0, 0, 0, 0, 0, 0
%           |0, 0, 0, 2, 0, 0, 0, 0, 0, 0, 0, 0, 0, 0, 0, 2, 0, 0, 0, 0, 0, 0, 0, 0, 0, 0
%           |0, 0, 0, 0, 0, 0, 0, 0, 0, 0, 0, 0, 2, 0, 0, 0, 0, 0, 5, 0, 0, 0, 0, 0, 0, 0
%           |0, 4, 0, 0, 0, 3, 0, 0, 0, 0, 0, 0, 0, 0, 0, 0, 0, 0, 0, 0, 0, 0, 0, 0, 0, 1
%           |0, 0, 0, 0, 0, 0, 0, 0, 0, 0, 3, 0, 0, 0, 0, 0, 0, 1, 0, 0, 0, 0, 0, 0, 0, 0
%           |0, 0, 0, 0, 0, 0, 0, 0, 0, 0, 0, 0, 0, 0, 0, 0, 0, 0, 0, 0, 0, 0, 0, 1, 0, 0
%           |];

% Distance matrix
Dist = [|0, 2, 4, 5, 10, 9, 6, 5, 9, 6, 9, 10, 6, 8, 7, 6, 4, 9, 7, 13, 2, 7, 8, 6, 10, 7
      |2, 0, 6, 7, 12, 7, 8, 7, 8, 4, 11, 10, 4, 10, 9, 8, 6, 9, 9, 13, 4, 9, 6, 4, 10, 5
      |4, 6, 0, 9, 14, 7, 6, 9, 9, 10, 9, 11, 10, 12, 11, 6, 4, 5, 11, 14, 2, 8, 12, 10, 6, 11
      |5, 7, 9, 0, 5, 10, 11, 4, 7, 11, 4, 5, 9, 3, 2, 4, 9, 8, 2, 8, 7, 2, 7, 11, 7, 12
      |10, 12, 14, 5, 0, 15, 16, 9, 12, 16, 9, 10, 14, 8, 7, 9, 14, 13, 7, 13, 12, 7, 12, 16, 12, 17
      |9, 7, 7, 10, 15, 0, 13, 6, 15, 11, 6, 13, 11, 13, 12, 13, 11, 2, 8, 16, 9, 12, 13, 3, 3, 4
      |6, 8, 6, 11, 16, 13, 0, 11, 11, 12, 15, 13, 12, 14, 13, 8, 6, 11, 13, 16, 4, 10, 14, 12, 12, 13
      |5, 7, 9, 4, 9, 6, 11, 0, 11, 11, 8, 9, 11, 7, 6, 8, 9, 4, 6, 12, 7, 6, 11, 9, 5, 10
      |9, 8, 9, 7, 12, 15, 11, 11, 0, 4, 9, 2, 12, 10, 9, 11, 5, 13, 7, 5, 7, 9, 12, 12, 12, 13
      |6, 4, 10, 11, 16, 11, 12, 11, 4, 0, 13, 6, 8, 14, 13, 12, 9, 13, 11, 9, 8, 13, 10, 8, 14, 9
      |9, 11, 9, 4, 9, 6, 15, 8, 9, 13, 0, 7, 9, 7, 6, 8, 13, 4, 2, 10, 11, 6, 7, 9, 3, 10
      |10, 10, 11, 5, 10, 13, 13, 9, 2, 6, 7, 0, 12, 8, 7, 9, 7, 11, 5, 3, 9, 7, 10, 14, 10, 15
      |6, 4, 10, 9, 14, 11, 12, 11, 12, 8, 9, 12, 0, 12, 11, 12, 10, 13, 7, 15, 8, 11, 2, 8, 12, 9
      |8, 10, 12, 3, 8, 13, 14, 7, 10, 14, 7, 8, 12, 0, 5, 7, 12, 11, 5, 11, 10, 5, 10, 14, 10, 15
      |7, 9, 11, 2, 7, 12, 13, 6, 9, 13, 6, 7, 11, 5, 0, 6, 11, 10, 4, 10, 9, 4, 9, 13, 9, 14
      |6, 8, 6, 4, 9, 13, 8, 8, 11, 12, 8, 9, 12, 7, 6, 0, 6, 11, 6, 12, 4, 2, 11, 12, 11, 13
      |4, 6, 4, 9, 14, 11, 6, 9, 5, 9, 13, 7, 10, 12, 11, 6, 0, 9, 11, 10, 2, 8, 12, 10, 10, 11
      |9, 9, 5, 8, 13, 2, 11, 4, 13, 13, 4, 11, 13, 11, 10, 11, 9, 0, 6, 14, 7, 10, 11, 5, 1, 6
      |7, 9, 11, 2, 7, 8, 13, 6, 7, 11, 2, 5, 7, 5, 4, 6, 11, 6, 0, 8, 9, 4, 5, 11, 5, 12
      |13, 13, 14, 8, 13, 16, 16, 12, 5, 9, 10, 3, 15, 11, 10, 12, 10, 14, 8, 0, 12, 10, 13, 17, 13, 18
      |2, 4, 2, 7, 12, 9, 4, 7, 7, 8, 11, 9, 8, 10, 9, 4, 2, 7, 9, 12, 0, 6, 10, 8, 8, 9
      |7, 9, 8, 2, 7, 12, 10, 6, 9, 13, 6, 7, 11, 5, 4, 2, 8, 10, 4, 10, 6, 0, 9, 13, 9, 14
      |8, 6, 12, 7, 12, 13, 14, 11, 12, 10, 7, 10, 2, 10, 9, 11, 12, 11, 5, 13, 10, 9, 0, 10, 10, 11
      |6, 4, 10, 11, 16, 3, 12, 9, 12, 8, 9, 14, 8, 14, 13, 12, 10, 5, 11, 17, 8, 13, 10, 0, 6, 1
      |10, 10, 6, 7, 12, 3, 12, 5, 12, 14, 3, 10, 12, 10, 9, 11, 10, 1, 5, 13, 8, 9, 10, 6, 0, 7
      |7, 5, 11, 12, 17, 4, 13, 10, 13, 9, 10, 15, 9, 15, 14, 13, 11, 6, 12, 18, 9, 14, 11, 1, 7, 0
      |];

% Initial object distribution
S_init = [0, 2, 0, 0, 1, 0, 0, 1, 0, 0, 0, 1, 0, 0, 0, 0, 0, 1, 0, 0, 0, 0, 0, 0, 0, 0];

% Target nodes (1 if target, 0 otherwise)
T = [0, 0, 0, 0, 0, 0, 0, 0, 0, 0, 1, 0, 0, 1, 0, 0, 0, 0, 0, 1, 1, 0, 1, 0, 0, 1];

% Initial truck position (1-based indexing)
u = 5;

% --- DEBUG TRACE ---
% --- GENERATION TRACE (Backwards from Target) ---
% Initial distribution (all on targets): [0, 0, 0, 0, 0, 0, 0, 0, 0, 0, 1, 0, 0, 1, 0, 0, 0, 0, 0, 1, 1, 0, 1, 0, 0, 1]
% Step 1: Selected target node 21 (has 1 objects)
% Step 1: Moved object 21 -> 3
% Step 1: Distribution: [0, 0, 1, 0, 0, 0, 0, 0, 0, 0, 1, 0, 0, 1, 0, 0, 0, 0, 0, 1, 0, 0, 1, 0, 0, 1]
% Step 2: Selected target node 14 (has 1 objects)
% Step 2: Moved object 14 -> 4
% Step 2: Distribution: [0, 0, 1, 1, 0, 0, 0, 0, 0, 0, 1, 0, 0, 0, 0, 0, 0, 0, 0, 1, 0, 0, 1, 0, 0, 1]
% Step 3: Selected target node 11 (has 1 objects)
% Step 3: Moved object 11 -> 18
% Step 3: Distribution: [0, 0, 1, 1, 0, 0, 0, 0, 0, 0, 0, 0, 0, 0, 0, 0, 0, 1, 0, 1, 0, 0, 1, 0, 0, 1]
% Step 4: Selected target node 26 (has 1 objects)
% Step 4: Moved object 26 -> 24
% Step 4: Distribution: [0, 0, 1, 1, 0, 0, 0, 0, 0, 0, 0, 0, 0, 0, 0, 0, 0, 1, 0, 1, 0, 0, 1, 1, 0, 0]
% Step 5: Selected target node 23 (has 1 objects)
% Step 5: Moved object 23 -> 13
% Step 5: Distribution: [0, 0, 1, 1, 0, 0, 0, 0, 0, 0, 0, 0, 1, 0, 0, 0, 0, 1, 0, 1, 0, 0, 0, 1, 0, 0]
% Step 6: Selected target node 20 (has 1 objects)
% Step 6: Moved object 20 -> 12
% Step 6: Distribution: [0, 0, 1, 1, 0, 0, 0, 0, 0, 0, 0, 1, 1, 0, 0, 0, 0, 1, 0, 0, 0, 0, 0, 1, 0, 0]
% Step 7: Selected non-target node 4 (has 1 objects)
% Step 7: Avoiding backtrack to node 14
% Step 7: Moved object 4 -> 19
% Step 7: Distribution: [0, 0, 1, 0, 0, 0, 0, 0, 0, 0, 0, 1, 1, 0, 0, 0, 0, 1, 1, 0, 0, 0, 0, 1, 0, 0]
% Step 8: Selected non-target node 19 (has 1 objects)
% Step 8: Avoiding backtrack to node 4
% Step 8: Moved object 19 -> 12
% Step 8: Distribution: [0, 0, 1, 0, 0, 0, 0, 0, 0, 0, 0, 2, 1, 0, 0, 0, 0, 1, 0, 0, 0, 0, 0, 1, 0, 0]
% Step 9: Selected non-target node 3 (has 1 objects)
% Step 9: Avoiding backtrack to node 21
% Step 9: Moved object 3 -> 18
% Step 9: Distribution: [0, 0, 0, 0, 0, 0, 0, 0, 0, 0, 0, 2, 1, 0, 0, 0, 0, 2, 0, 0, 0, 0, 0, 1, 0, 0]
% Step 10: Selected non-target node 13 (has 1 objects)
% Step 10: Avoiding backtrack to node 23
% Step 10: Moved object 13 -> 2
% Step 10: Distribution: [0, 1, 0, 0, 0, 0, 0, 0, 0, 0, 0, 2, 0, 0, 0, 0, 0, 2, 0, 0, 0, 0, 0, 1, 0, 0]
% Step 11: Selected non-target node 24 (has 1 objects)
% Step 11: Avoiding backtrack to node 26
% Step 11: Moved object 24 -> 2
% Step 11: Distribution: [0, 2, 0, 0, 0, 0, 0, 0, 0, 0, 0, 2, 0, 0, 0, 0, 0, 2, 0, 0, 0, 0, 0, 0, 0, 0]
% Step 12: Selected non-target node 18 (has 2 objects)
% Step 12: Avoiding backtrack to node 3
% Step 12: Moved object 18 -> 8
% Step 12: Distribution: [0, 2, 0, 0, 0, 0, 0, 1, 0, 0, 0, 2, 0, 0, 0, 0, 0, 1, 0, 0, 0, 0, 0, 0, 0, 0]
% Step 13: Selected non-target node 12 (has 2 objects)
% Step 13: Avoiding backtrack to node 19
% Step 13: Moved object 12 -> 4
% Step 13: Distribution: [0, 2, 0, 1, 0, 0, 0, 1, 0, 0, 0, 1, 0, 0, 0, 0, 0, 1, 0, 0, 0, 0, 0, 0, 0, 0]
% Step 14: Selected non-target node 4 (has 1 objects)
% Step 14: Avoiding backtrack to node 12
% Step 14: Moved object 4 -> 5
% Step 14: Distribution: [0, 2, 0, 0, 1, 0, 0, 1, 0, 0, 0, 1, 0, 0, 0, 0, 0, 1, 0, 0, 0, 0, 0, 0, 0, 0]
% Truck starting position: 5
