% instance_n26_c2_k17_i94.dzn
% Generated instance for the Trucks problem
% N=26, h=6, k=17

% Number of nodes
N = 26;

% Number of objects
h = 6;

% Maximum plan length
%k = 17;

% Adjacency matrix (0-based internal, will be converted to 1-based)
Adj = [|0, 0, 0, 1, 0, 1, 0, 0, 0, 0, 0, 0, 1, 0, 0, 0, 0, 0, 1, 0, 0, 0, 1, 0, 0, 0
      |0, 0, 0, 0, 0, 0, 0, 0, 0, 0, 0, 0, 0, 0, 0, 0, 0, 0, 0, 0, 0, 0, 0, 0, 1, 0
      |0, 0, 0, 0, 0, 0, 1, 0, 0, 0, 0, 0, 0, 0, 0, 0, 0, 1, 1, 0, 0, 0, 0, 0, 0, 0
      |1, 0, 0, 0, 0, 0, 0, 0, 0, 0, 0, 0, 1, 0, 0, 1, 0, 0, 0, 0, 0, 0, 0, 0, 0, 1
      |0, 0, 0, 0, 0, 0, 0, 0, 0, 0, 0, 0, 0, 0, 1, 0, 0, 0, 0, 0, 0, 1, 0, 0, 0, 0
      |1, 0, 0, 0, 0, 0, 0, 0, 1, 0, 0, 0, 0, 0, 0, 0, 0, 0, 0, 0, 0, 1, 0, 0, 0, 0
      |0, 0, 1, 0, 0, 0, 0, 0, 0, 0, 0, 0, 0, 0, 0, 0, 1, 0, 0, 0, 0, 0, 0, 0, 0, 0
      |0, 0, 0, 0, 0, 0, 0, 0, 0, 0, 1, 0, 0, 0, 0, 0, 0, 1, 0, 0, 0, 0, 0, 0, 0, 0
      |0, 0, 0, 0, 0, 1, 0, 0, 0, 1, 0, 0, 0, 0, 0, 0, 0, 0, 0, 0, 1, 0, 0, 0, 0, 0
      |0, 0, 0, 0, 0, 0, 0, 0, 1, 0, 1, 0, 0, 0, 0, 1, 0, 0, 0, 0, 0, 0, 0, 0, 0, 0
      |0, 0, 0, 0, 0, 0, 0, 1, 0, 1, 0, 0, 0, 0, 0, 1, 1, 0, 0, 0, 0, 0, 0, 0, 0, 0
      |0, 0, 0, 0, 0, 0, 0, 0, 0, 0, 0, 0, 1, 0, 1, 0, 0, 0, 0, 0, 0, 0, 0, 0, 0, 0
      |1, 0, 0, 1, 0, 0, 0, 0, 0, 0, 0, 1, 0, 0, 0, 0, 0, 0, 0, 0, 0, 0, 0, 0, 0, 0
      |0, 0, 0, 0, 0, 0, 0, 0, 0, 0, 0, 0, 0, 0, 0, 0, 0, 0, 0, 0, 0, 0, 1, 0, 1, 0
      |0, 0, 0, 0, 1, 0, 0, 0, 0, 0, 0, 1, 0, 0, 0, 0, 0, 0, 0, 0, 0, 0, 0, 0, 0, 0
      |0, 0, 0, 1, 0, 0, 0, 0, 0, 1, 1, 0, 0, 0, 0, 0, 0, 0, 0, 0, 0, 0, 0, 1, 0, 0
      |0, 0, 0, 0, 0, 0, 1, 0, 0, 0, 1, 0, 0, 0, 0, 0, 0, 0, 0, 0, 0, 0, 0, 0, 0, 0
      |0, 0, 1, 0, 0, 0, 0, 1, 0, 0, 0, 0, 0, 0, 0, 0, 0, 0, 0, 1, 1, 0, 0, 0, 0, 0
      |1, 0, 1, 0, 0, 0, 0, 0, 0, 0, 0, 0, 0, 0, 0, 0, 0, 0, 0, 0, 0, 0, 0, 0, 0, 0
      |0, 0, 0, 0, 0, 0, 0, 0, 0, 0, 0, 0, 0, 0, 0, 0, 0, 1, 0, 0, 0, 0, 0, 0, 1, 0
      |0, 0, 0, 0, 0, 0, 0, 0, 1, 0, 0, 0, 0, 0, 0, 0, 0, 1, 0, 0, 0, 0, 0, 0, 0, 0
      |0, 0, 0, 0, 1, 1, 0, 0, 0, 0, 0, 0, 0, 0, 0, 0, 0, 0, 0, 0, 0, 0, 0, 0, 0, 0
      |1, 0, 0, 0, 0, 0, 0, 0, 0, 0, 0, 0, 0, 1, 0, 0, 0, 0, 0, 0, 0, 0, 0, 0, 0, 0
      |0, 0, 0, 0, 0, 0, 0, 0, 0, 0, 0, 0, 0, 0, 0, 1, 0, 0, 0, 0, 0, 0, 0, 0, 0, 0
      |0, 1, 0, 0, 0, 0, 0, 0, 0, 0, 0, 0, 0, 1, 0, 0, 0, 0, 0, 1, 0, 0, 0, 0, 0, 0
      |0, 0, 0, 1, 0, 0, 0, 0, 0, 0, 0, 0, 0, 0, 0, 0, 0, 0, 0, 0, 0, 0, 0, 0, 0, 0
      |];

% Weights matrix (edge weights)
% Weights = [|0, 0, 0, 4, 0, 1, 0, 0, 0, 0, 0, 0, 2, 0, 0, 0, 0, 0, 1, 0, 0, 0, 5, 0, 0, 0
%           |0, 0, 0, 0, 0, 0, 0, 0, 0, 0, 0, 0, 0, 0, 0, 0, 0, 0, 0, 0, 0, 0, 0, 0, 4, 0
%           |0, 0, 0, 0, 0, 0, 3, 0, 0, 0, 0, 0, 0, 0, 0, 0, 0, 5, 2, 0, 0, 0, 0, 0, 0, 0
%           |4, 0, 0, 0, 0, 0, 0, 0, 0, 0, 0, 0, 5, 0, 0, 1, 0, 0, 0, 0, 0, 0, 0, 0, 0, 2
%           |0, 0, 0, 0, 0, 0, 0, 0, 0, 0, 0, 0, 0, 0, 1, 0, 0, 0, 0, 0, 0, 1, 0, 0, 0, 0
%           |1, 0, 0, 0, 0, 0, 0, 0, 4, 0, 0, 0, 0, 0, 0, 0, 0, 0, 0, 0, 0, 3, 0, 0, 0, 0
%           |0, 0, 3, 0, 0, 0, 0, 0, 0, 0, 0, 0, 0, 0, 0, 0, 4, 0, 0, 0, 0, 0, 0, 0, 0, 0
%           |0, 0, 0, 0, 0, 0, 0, 0, 0, 0, 4, 0, 0, 0, 0, 0, 0, 1, 0, 0, 0, 0, 0, 0, 0, 0
%           |0, 0, 0, 0, 0, 4, 0, 0, 0, 3, 0, 0, 0, 0, 0, 0, 0, 0, 0, 0, 3, 0, 0, 0, 0, 0
%           |0, 0, 0, 0, 0, 0, 0, 0, 3, 0, 4, 0, 0, 0, 0, 2, 0, 0, 0, 0, 0, 0, 0, 0, 0, 0
%           |0, 0, 0, 0, 0, 0, 0, 4, 0, 4, 0, 0, 0, 0, 0, 3, 5, 0, 0, 0, 0, 0, 0, 0, 0, 0
%           |0, 0, 0, 0, 0, 0, 0, 0, 0, 0, 0, 0, 5, 0, 5, 0, 0, 0, 0, 0, 0, 0, 0, 0, 0, 0
%           |2, 0, 0, 5, 0, 0, 0, 0, 0, 0, 0, 5, 0, 0, 0, 0, 0, 0, 0, 0, 0, 0, 0, 0, 0, 0
%           |0, 0, 0, 0, 0, 0, 0, 0, 0, 0, 0, 0, 0, 0, 0, 0, 0, 0, 0, 0, 0, 0, 5, 0, 4, 0
%           |0, 0, 0, 0, 1, 0, 0, 0, 0, 0, 0, 5, 0, 0, 0, 0, 0, 0, 0, 0, 0, 0, 0, 0, 0, 0
%           |0, 0, 0, 1, 0, 0, 0, 0, 0, 2, 3, 0, 0, 0, 0, 0, 0, 0, 0, 0, 0, 0, 0, 5, 0, 0
%           |0, 0, 0, 0, 0, 0, 4, 0, 0, 0, 5, 0, 0, 0, 0, 0, 0, 0, 0, 0, 0, 0, 0, 0, 0, 0
%           |0, 0, 5, 0, 0, 0, 0, 1, 0, 0, 0, 0, 0, 0, 0, 0, 0, 0, 0, 4, 4, 0, 0, 0, 0, 0
%           |1, 0, 2, 0, 0, 0, 0, 0, 0, 0, 0, 0, 0, 0, 0, 0, 0, 0, 0, 0, 0, 0, 0, 0, 0, 0
%           |0, 0, 0, 0, 0, 0, 0, 0, 0, 0, 0, 0, 0, 0, 0, 0, 0, 4, 0, 0, 0, 0, 0, 0, 3, 0
%           |0, 0, 0, 0, 0, 0, 0, 0, 3, 0, 0, 0, 0, 0, 0, 0, 0, 4, 0, 0, 0, 0, 0, 0, 0, 0
%           |0, 0, 0, 0, 1, 3, 0, 0, 0, 0, 0, 0, 0, 0, 0, 0, 0, 0, 0, 0, 0, 0, 0, 0, 0, 0
%           |5, 0, 0, 0, 0, 0, 0, 0, 0, 0, 0, 0, 0, 5, 0, 0, 0, 0, 0, 0, 0, 0, 0, 0, 0, 0
%           |0, 0, 0, 0, 0, 0, 0, 0, 0, 0, 0, 0, 0, 0, 0, 5, 0, 0, 0, 0, 0, 0, 0, 0, 0, 0
%           |0, 4, 0, 0, 0, 0, 0, 0, 0, 0, 0, 0, 0, 4, 0, 0, 0, 0, 0, 3, 0, 0, 0, 0, 0, 0
%           |0, 0, 0, 2, 0, 0, 0, 0, 0, 0, 0, 0, 0, 0, 0, 0, 0, 0, 0, 0, 0, 0, 0, 0, 0, 0
%           |];

% Distance matrix
Dist = [|0, 18, 3, 4, 5, 1, 6, 9, 5, 7, 8, 7, 2, 10, 6, 5, 10, 8, 1, 12, 8, 4, 5, 10, 14, 6
      |18, 0, 16, 20, 23, 19, 19, 12, 18, 20, 16, 25, 20, 8, 24, 19, 21, 11, 18, 7, 15, 22, 13, 24, 4, 22
      |3, 16, 0, 7, 8, 4, 3, 6, 8, 10, 10, 10, 5, 13, 9, 8, 7, 5, 2, 9, 9, 7, 8, 13, 12, 9
      |4, 20, 7, 0, 9, 5, 10, 8, 6, 3, 4, 10, 5, 14, 10, 1, 9, 9, 5, 13, 9, 8, 9, 6, 16, 2
      |5, 23, 8, 9, 0, 4, 11, 14, 8, 11, 13, 6, 7, 15, 1, 10, 15, 13, 6, 17, 11, 1, 10, 15, 19, 11
      |1, 19, 4, 5, 4, 0, 7, 10, 4, 7, 9, 8, 3, 11, 5, 6, 11, 9, 2, 13, 7, 3, 6, 11, 15, 7
      |6, 19, 3, 10, 11, 7, 0, 9, 11, 13, 9, 13, 8, 16, 12, 11, 4, 8, 5, 12, 12, 10, 11, 16, 15, 12
      |9, 12, 6, 8, 14, 10, 9, 0, 8, 8, 4, 16, 11, 12, 15, 7, 9, 1, 8, 5, 5, 13, 14, 12, 8, 10
      |5, 18, 8, 6, 8, 4, 11, 8, 0, 3, 7, 12, 7, 15, 9, 5, 12, 7, 6, 11, 3, 7, 10, 10, 14, 8
      |7, 20, 10, 3, 11, 7, 13, 8, 3, 0, 4, 13, 8, 17, 12, 2, 9, 9, 8, 13, 6, 10, 12, 7, 16, 5
      |8, 16, 10, 4, 13, 9, 9, 4, 7, 4, 0, 14, 9, 16, 14, 3, 5, 5, 9, 9, 9, 12, 13, 8, 12, 6
      |7, 25, 10, 10, 6, 8, 13, 16, 12, 13, 14, 0, 5, 17, 5, 11, 17, 15, 8, 19, 15, 7, 12, 16, 21, 12
      |2, 20, 5, 5, 7, 3, 8, 11, 7, 8, 9, 5, 0, 12, 8, 6, 12, 10, 3, 14, 10, 6, 7, 11, 16, 7
      |10, 8, 13, 14, 15, 11, 16, 12, 15, 17, 16, 17, 12, 0, 16, 15, 20, 11, 11, 7, 15, 14, 5, 20, 4, 16
      |6, 24, 9, 10, 1, 5, 12, 15, 9, 12, 14, 5, 8, 16, 0, 11, 16, 14, 7, 18, 12, 2, 11, 16, 20, 12
      |5, 19, 8, 1, 10, 6, 11, 7, 5, 2, 3, 11, 6, 15, 11, 0, 8, 8, 6, 12, 8, 9, 10, 5, 15, 3
      |10, 21, 7, 9, 15, 11, 4, 9, 12, 9, 5, 17, 12, 20, 16, 8, 0, 10, 9, 14, 14, 14, 15, 13, 17, 11
      |8, 11, 5, 9, 13, 9, 8, 1, 7, 9, 5, 15, 10, 11, 14, 8, 10, 0, 7, 4, 4, 12, 13, 13, 7, 11
      |1, 18, 2, 5, 6, 2, 5, 8, 6, 8, 9, 8, 3, 11, 7, 6, 9, 7, 0, 11, 9, 5, 6, 11, 14, 7
      |12, 7, 9, 13, 17, 13, 12, 5, 11, 13, 9, 19, 14, 7, 18, 12, 14, 4, 11, 0, 8, 16, 12, 17, 3, 15
      |8, 15, 9, 9, 11, 7, 12, 5, 3, 6, 9, 15, 10, 15, 12, 8, 14, 4, 9, 8, 0, 10, 13, 13, 11, 11
      |4, 22, 7, 8, 1, 3, 10, 13, 7, 10, 12, 7, 6, 14, 2, 9, 14, 12, 5, 16, 10, 0, 9, 14, 18, 10
      |5, 13, 8, 9, 10, 6, 11, 14, 10, 12, 13, 12, 7, 5, 11, 10, 15, 13, 6, 12, 13, 9, 0, 15, 9, 11
      |10, 24, 13, 6, 15, 11, 16, 12, 10, 7, 8, 16, 11, 20, 16, 5, 13, 13, 11, 17, 13, 14, 15, 0, 20, 8
      |14, 4, 12, 16, 19, 15, 15, 8, 14, 16, 12, 21, 16, 4, 20, 15, 17, 7, 14, 3, 11, 18, 9, 20, 0, 18
      |6, 22, 9, 2, 11, 7, 12, 10, 8, 5, 6, 12, 7, 16, 12, 3, 11, 11, 7, 15, 11, 10, 11, 8, 18, 0
      |];

% Initial object distribution
S_init = [0, 0, 0, 2, 0, 1, 0, 1, 0, 0, 0, 0, 0, 1, 0, 0, 0, 0, 0, 0, 1, 0, 0, 0, 0, 0];

% Target nodes (1 if target, 0 otherwise)
T = [0, 0, 1, 0, 0, 0, 0, 0, 0, 0, 0, 1, 0, 0, 0, 1, 0, 0, 0, 1, 0, 0, 0, 0, 0, 0];

% Initial truck position (1-based indexing)
u = 9;

% --- DEBUG TRACE ---
% --- GENERATION TRACE (Backwards from Target) ---
% Initial distribution (all on targets): [0, 0, 1, 0, 0, 0, 0, 0, 0, 0, 0, 2, 0, 0, 0, 2, 0, 0, 0, 1, 0, 0, 0, 0, 0, 0]
% Step 1: Selected target node 16 (has 2 objects)
% Step 1: Moved object 16 -> 11
% Step 1: Distribution: [0, 0, 1, 0, 0, 0, 0, 0, 0, 0, 1, 2, 0, 0, 0, 1, 0, 0, 0, 1, 0, 0, 0, 0, 0, 0]
% Step 2: Selected target node 12 (has 2 objects)
% Step 2: Moved object 12 -> 15
% Step 2: Distribution: [0, 0, 1, 0, 0, 0, 0, 0, 0, 0, 1, 1, 0, 0, 1, 1, 0, 0, 0, 1, 0, 0, 0, 0, 0, 0]
% Step 3: Selected target node 3 (has 1 objects)
% Step 3: Moved object 3 -> 18
% Step 3: Distribution: [0, 0, 0, 0, 0, 0, 0, 0, 0, 0, 1, 1, 0, 0, 1, 1, 0, 1, 0, 1, 0, 0, 0, 0, 0, 0]
% Step 4: Selected target node 16 (has 1 objects)
% Step 4: Moved object 16 -> 4
% Step 4: Distribution: [0, 0, 0, 1, 0, 0, 0, 0, 0, 0, 1, 1, 0, 0, 1, 0, 0, 1, 0, 1, 0, 0, 0, 0, 0, 0]
% Step 5: Selected target node 12 (has 1 objects)
% Step 5: Moved object 12 -> 13
% Step 5: Distribution: [0, 0, 0, 1, 0, 0, 0, 0, 0, 0, 1, 0, 1, 0, 1, 0, 0, 1, 0, 1, 0, 0, 0, 0, 0, 0]
% Step 6: Selected target node 20 (has 1 objects)
% Step 6: Moved object 20 -> 25
% Step 6: Distribution: [0, 0, 0, 1, 0, 0, 0, 0, 0, 0, 1, 0, 1, 0, 1, 0, 0, 1, 0, 0, 0, 0, 0, 0, 1, 0]
% Step 7: Selected non-target node 13 (has 1 objects)
% Step 7: Avoiding backtrack to node 12
% Step 7: Moved object 13 -> 4
% Step 7: Distribution: [0, 0, 0, 2, 0, 0, 0, 0, 0, 0, 1, 0, 0, 0, 1, 0, 0, 1, 0, 0, 0, 0, 0, 0, 1, 0]
% Step 8: Selected non-target node 25 (has 1 objects)
% Step 8: Avoiding backtrack to node 20
% Step 8: Moved object 25 -> 14
% Step 8: Distribution: [0, 0, 0, 2, 0, 0, 0, 0, 0, 0, 1, 0, 0, 1, 1, 0, 0, 1, 0, 0, 0, 0, 0, 0, 0, 0]
% Step 9: Selected non-target node 4 (has 2 objects)
% Step 9: Avoiding backtrack to node 13
% Step 9: Moved object 4 -> 26
% Step 9: Distribution: [0, 0, 0, 1, 0, 0, 0, 0, 0, 0, 1, 0, 0, 1, 1, 0, 0, 1, 0, 0, 0, 0, 0, 0, 0, 1]
% Step 10: Selected non-target node 18 (has 1 objects)
% Step 10: Avoiding backtrack to node 3
% Step 10: Moved object 18 -> 8
% Step 10: Distribution: [0, 0, 0, 1, 0, 0, 0, 1, 0, 0, 1, 0, 0, 1, 1, 0, 0, 0, 0, 0, 0, 0, 0, 0, 0, 1]
% Step 11: Selected non-target node 26 (has 1 objects)
% Step 11: Moved object 26 -> 4
% Step 11: Distribution: [0, 0, 0, 2, 0, 0, 0, 1, 0, 0, 1, 0, 0, 1, 1, 0, 0, 0, 0, 0, 0, 0, 0, 0, 0, 0]
% Step 12: Selected non-target node 11 (has 1 objects)
% Step 12: Avoiding backtrack to node 16
% Step 12: Moved object 11 -> 10
% Step 12: Distribution: [0, 0, 0, 2, 0, 0, 0, 1, 0, 1, 0, 0, 0, 1, 1, 0, 0, 0, 0, 0, 0, 0, 0, 0, 0, 0]
% Step 13: Selected non-target node 10 (has 1 objects)
% Step 13: Avoiding backtrack to node 11
% Step 13: Moved object 10 -> 9
% Step 13: Distribution: [0, 0, 0, 2, 0, 0, 0, 1, 1, 0, 0, 0, 0, 1, 1, 0, 0, 0, 0, 0, 0, 0, 0, 0, 0, 0]
% Step 14: Selected non-target node 9 (has 1 objects)
% Step 14: Avoiding backtrack to node 10
% Step 14: Moved object 9 -> 21
% Step 14: Distribution: [0, 0, 0, 2, 0, 0, 0, 1, 0, 0, 0, 0, 0, 1, 1, 0, 0, 0, 0, 0, 1, 0, 0, 0, 0, 0]
% Step 15: Selected non-target node 15 (has 1 objects)
% Step 15: Avoiding backtrack to node 12
% Step 15: Moved object 15 -> 5
% Step 15: Distribution: [0, 0, 0, 2, 1, 0, 0, 1, 0, 0, 0, 0, 0, 1, 0, 0, 0, 0, 0, 0, 1, 0, 0, 0, 0, 0]
% Step 16: Selected non-target node 5 (has 1 objects)
% Step 16: Avoiding backtrack to node 15
% Step 16: Moved object 5 -> 22
% Step 16: Distribution: [0, 0, 0, 2, 0, 0, 0, 1, 0, 0, 0, 0, 0, 1, 0, 0, 0, 0, 0, 0, 1, 1, 0, 0, 0, 0]
% Step 17: Selected non-target node 22 (has 1 objects)
% Step 17: Avoiding backtrack to node 5
% Step 17: Moved object 22 -> 6
% Step 17: Distribution: [0, 0, 0, 2, 0, 1, 0, 1, 0, 0, 0, 0, 0, 1, 0, 0, 0, 0, 0, 0, 1, 0, 0, 0, 0, 0]
% Truck starting position: 9
