% instance_n18_c2_k14_i53.dzn
% Generated instance for the Trucks problem
% N=18, h=4, k=14

% Number of nodes
N = 18;

% Number of objects
h = 4;

% Maximum plan length
%k = 6;

% Adjacency matrix (0-based internal, will be converted to 1-based)
Adj = [|0, 0, 1, 1, 0, 0, 0, 0, 0, 1, 0, 0, 0, 0, 1, 0, 0, 0
      |0, 0, 0, 0, 0, 0, 0, 0, 1, 1, 0, 1, 1, 0, 1, 0, 0, 0
      |1, 0, 0, 0, 0, 0, 0, 0, 0, 0, 0, 0, 0, 0, 0, 0, 0, 0
      |1, 0, 0, 0, 0, 0, 0, 0, 0, 1, 0, 1, 0, 0, 0, 0, 0, 0
      |0, 0, 0, 0, 0, 0, 1, 1, 0, 0, 0, 0, 0, 0, 0, 0, 1, 0
      |0, 0, 0, 0, 0, 0, 0, 0, 0, 0, 0, 0, 0, 0, 0, 0, 1, 0
      |0, 0, 0, 0, 1, 0, 0, 0, 0, 0, 0, 0, 0, 0, 0, 0, 0, 0
      |0, 0, 0, 0, 1, 0, 0, 0, 0, 0, 0, 0, 1, 0, 0, 0, 0, 0
      |0, 1, 0, 0, 0, 0, 0, 0, 0, 0, 0, 0, 1, 0, 0, 0, 0, 0
      |1, 1, 0, 1, 0, 0, 0, 0, 0, 0, 0, 0, 0, 1, 0, 0, 0, 0
      |0, 0, 0, 0, 0, 0, 0, 0, 0, 0, 0, 0, 0, 0, 0, 0, 0, 1
      |0, 1, 0, 1, 0, 0, 0, 0, 0, 0, 0, 0, 0, 0, 0, 1, 0, 0
      |0, 1, 0, 0, 0, 0, 0, 1, 1, 0, 0, 0, 0, 0, 1, 0, 0, 0
      |0, 0, 0, 0, 0, 0, 0, 0, 0, 1, 0, 0, 0, 0, 0, 0, 1, 0
      |1, 1, 0, 0, 0, 0, 0, 0, 0, 0, 0, 0, 1, 0, 0, 0, 0, 0
      |0, 0, 0, 0, 0, 0, 0, 0, 0, 0, 0, 1, 0, 0, 0, 0, 1, 0
      |0, 0, 0, 0, 1, 1, 0, 0, 0, 0, 0, 0, 0, 1, 0, 1, 0, 1
      |0, 0, 0, 0, 0, 0, 0, 0, 0, 0, 1, 0, 0, 0, 0, 0, 1, 0
      |];

% Weights matrix (edge weights)
% Weights = [|0, 0, 4, 2, 0, 0, 0, 0, 0, 4, 0, 0, 0, 0, 3, 0, 0, 0
%           |0, 0, 0, 0, 0, 0, 0, 0, 1, 5, 0, 1, 3, 0, 1, 0, 0, 0
%           |4, 0, 0, 0, 0, 0, 0, 0, 0, 0, 0, 0, 0, 0, 0, 0, 0, 0
%           |2, 0, 0, 0, 0, 0, 0, 0, 0, 4, 0, 2, 0, 0, 0, 0, 0, 0
%           |0, 0, 0, 0, 0, 0, 2, 3, 0, 0, 0, 0, 0, 0, 0, 0, 2, 0
%           |0, 0, 0, 0, 0, 0, 0, 0, 0, 0, 0, 0, 0, 0, 0, 0, 2, 0
%           |0, 0, 0, 0, 2, 0, 0, 0, 0, 0, 0, 0, 0, 0, 0, 0, 0, 0
%           |0, 0, 0, 0, 3, 0, 0, 0, 0, 0, 0, 0, 4, 0, 0, 0, 0, 0
%           |0, 1, 0, 0, 0, 0, 0, 0, 0, 0, 0, 0, 3, 0, 0, 0, 0, 0
%           |4, 5, 0, 4, 0, 0, 0, 0, 0, 0, 0, 0, 0, 2, 0, 0, 0, 0
%           |0, 0, 0, 0, 0, 0, 0, 0, 0, 0, 0, 0, 0, 0, 0, 0, 0, 3
%           |0, 1, 0, 2, 0, 0, 0, 0, 0, 0, 0, 0, 0, 0, 0, 2, 0, 0
%           |0, 3, 0, 0, 0, 0, 0, 4, 3, 0, 0, 0, 0, 0, 1, 0, 0, 0
%           |0, 0, 0, 0, 0, 0, 0, 0, 0, 2, 0, 0, 0, 0, 0, 0, 1, 0
%           |3, 1, 0, 0, 0, 0, 0, 0, 0, 0, 0, 0, 1, 0, 0, 0, 0, 0
%           |0, 0, 0, 0, 0, 0, 0, 0, 0, 0, 0, 2, 0, 0, 0, 0, 4, 0
%           |0, 0, 0, 0, 2, 2, 0, 0, 0, 0, 0, 0, 0, 1, 0, 4, 0, 1
%           |0, 0, 0, 0, 0, 0, 0, 0, 0, 0, 3, 0, 0, 0, 0, 0, 1, 0
%           |];

% Distance matrix
Dist = [|0, 4, 4, 2, 9, 9, 11, 8, 5, 4, 11, 4, 4, 6, 3, 6, 7, 8
      |4, 0, 8, 3, 9, 9, 11, 6, 1, 5, 11, 1, 2, 7, 1, 3, 7, 8
      |4, 8, 0, 6, 13, 13, 15, 12, 9, 8, 15, 8, 8, 10, 7, 10, 11, 12
      |2, 3, 6, 0, 9, 9, 11, 9, 4, 4, 11, 2, 5, 6, 4, 4, 7, 8
      |9, 9, 13, 9, 0, 4, 2, 3, 10, 5, 6, 8, 7, 3, 8, 6, 2, 3
      |9, 9, 13, 9, 4, 0, 6, 7, 10, 5, 6, 8, 11, 3, 10, 6, 2, 3
      |11, 11, 15, 11, 2, 6, 0, 5, 12, 7, 8, 10, 9, 5, 10, 8, 4, 5
      |8, 6, 12, 9, 3, 7, 5, 0, 7, 8, 9, 7, 4, 6, 5, 9, 5, 6
      |5, 1, 9, 4, 10, 10, 12, 7, 0, 6, 12, 2, 3, 8, 2, 4, 8, 9
      |4, 5, 8, 4, 5, 5, 7, 8, 6, 0, 7, 6, 7, 2, 6, 7, 3, 4
      |11, 11, 15, 11, 6, 6, 8, 9, 12, 7, 0, 10, 13, 5, 12, 8, 4, 3
      |4, 1, 8, 2, 8, 8, 10, 7, 2, 6, 10, 0, 3, 7, 2, 2, 6, 7
      |4, 2, 8, 5, 7, 11, 9, 4, 3, 7, 13, 3, 0, 9, 1, 5, 9, 10
      |6, 7, 10, 6, 3, 3, 5, 6, 8, 2, 5, 7, 9, 0, 8, 5, 1, 2
      |3, 1, 7, 4, 8, 10, 10, 5, 2, 6, 12, 2, 1, 8, 0, 4, 8, 9
      |6, 3, 10, 4, 6, 6, 8, 9, 4, 7, 8, 2, 5, 5, 4, 0, 4, 5
      |7, 7, 11, 7, 2, 2, 4, 5, 8, 3, 4, 6, 9, 1, 8, 4, 0, 1
      |8, 8, 12, 8, 3, 3, 5, 6, 9, 4, 3, 7, 10, 2, 9, 5, 1, 0
      |];

% Initial object distribution
S_init = [0, 0, 2, 0, 1, 0, 0, 0, 0, 0, 0, 0, 0, 0, 0, 0, 1, 0];

% Target nodes (1 if target, 0 otherwise)
T = [0, 1, 0, 1, 0, 0, 0, 0, 0, 0, 0, 0, 0, 0, 0, 0, 0, 1];

% Initial truck position (1-based indexing)
u = 5;

% --- DEBUG TRACE ---
% --- GENERATION TRACE (Backwards from Target) ---
% Initial distribution (all on targets): [0, 2, 0, 1, 0, 0, 0, 0, 0, 0, 0, 0, 0, 0, 0, 0, 0, 1]
% Step 1: Selected target node 4 (has 1 objects)
% Step 1: Moved object 4 -> 1
% Step 1: Distribution: [1, 2, 0, 0, 0, 0, 0, 0, 0, 0, 0, 0, 0, 0, 0, 0, 0, 1]
% Step 2: Selected target node 18 (has 1 objects)
% Step 2: Moved object 18 -> 17
% Step 2: Distribution: [1, 2, 0, 0, 0, 0, 0, 0, 0, 0, 0, 0, 0, 0, 0, 0, 1, 0]
% Step 3: Selected target node 2 (has 2 objects)
% Step 3: Moved object 2 -> 9
% Step 3: Distribution: [1, 1, 0, 0, 0, 0, 0, 0, 1, 0, 0, 0, 0, 0, 0, 0, 1, 0]
% Step 4: Selected target node 2 (has 1 objects)
% Step 4: Moved object 2 -> 12
% Step 4: Distribution: [1, 0, 0, 0, 0, 0, 0, 0, 1, 0, 0, 1, 0, 0, 0, 0, 1, 0]
% Step 5: Selected non-target node 17 (has 1 objects)
% Step 5: Avoiding backtrack to node 18
% Step 5: Moved object 17 -> 16
% Step 5: Distribution: [1, 0, 0, 0, 0, 0, 0, 0, 1, 0, 0, 1, 0, 0, 0, 1, 0, 0]
% Step 6: Selected non-target node 1 (has 1 objects)
% Step 6: Avoiding backtrack to node 4
% Step 6: Moved object 1 -> 3
% Step 6: Distribution: [0, 0, 1, 0, 0, 0, 0, 0, 1, 0, 0, 1, 0, 0, 0, 1, 0, 0]
% Step 7: Selected non-target node 12 (has 1 objects)
% Step 7: Avoiding backtrack to node 2
% Step 7: Moved object 12 -> 16
% Step 7: Distribution: [0, 0, 1, 0, 0, 0, 0, 0, 1, 0, 0, 0, 0, 0, 0, 2, 0, 0]
% Step 8: Selected non-target node 9 (has 1 objects)
% Step 8: Avoiding backtrack to node 2
% Step 8: Moved object 9 -> 13
% Step 8: Distribution: [0, 0, 1, 0, 0, 0, 0, 0, 0, 0, 0, 0, 1, 0, 0, 2, 0, 0]
% Step 9: Selected non-target node 16 (has 2 objects)
% Step 9: Avoiding backtrack to node 12
% Step 9: Moved object 16 -> 17
% Step 9: Distribution: [0, 0, 1, 0, 0, 0, 0, 0, 0, 0, 0, 0, 1, 0, 0, 1, 1, 0]
% Step 10: Selected non-target node 13 (has 1 objects)
% Step 10: Avoiding backtrack to node 9
% Step 10: Moved object 13 -> 15
% Step 10: Distribution: [0, 0, 1, 0, 0, 0, 0, 0, 0, 0, 0, 0, 0, 0, 1, 1, 1, 0]
% Step 11: Selected non-target node 15 (has 1 objects)
% Step 11: Avoiding backtrack to node 13
% Step 11: Moved object 15 -> 1
% Step 11: Distribution: [1, 0, 1, 0, 0, 0, 0, 0, 0, 0, 0, 0, 0, 0, 0, 1, 1, 0]
% Step 12: Selected non-target node 1 (has 1 objects)
% Step 12: Avoiding backtrack to node 15
% Step 12: Moved object 1 -> 3
% Step 12: Distribution: [0, 0, 2, 0, 0, 0, 0, 0, 0, 0, 0, 0, 0, 0, 0, 1, 1, 0]
% Step 13: Selected non-target node 16 (has 1 objects)
% Step 13: Avoiding backtrack to node 12
% Step 13: Moved object 16 -> 17
% Step 13: Distribution: [0, 0, 2, 0, 0, 0, 0, 0, 0, 0, 0, 0, 0, 0, 0, 0, 2, 0]
% Step 14: Selected non-target node 17 (has 2 objects)
% Step 14: Avoiding backtrack to node 16
% Step 14: Moved object 17 -> 5
% Step 14: Distribution: [0, 0, 2, 0, 1, 0, 0, 0, 0, 0, 0, 0, 0, 0, 0, 0, 1, 0]
% Truck starting position: 5
