% instance_n22_c0_k14_i63.dzn
% Generated instance for the Trucks problem
% N=22, h=5, k=14

% Number of nodes
N = 22;

% Number of objects
h = 5;

% Maximum plan length
%k = 14;

% Adjacency matrix (0-based internal, will be converted to 1-based)
Adj = [|0, 1, 0, 0, 0, 0, 0, 0, 0, 0, 0, 0, 0, 0, 0, 0, 0, 0, 0, 0, 0, 1
      |1, 0, 0, 0, 0, 0, 0, 0, 0, 0, 0, 0, 0, 0, 0, 0, 0, 0, 0, 0, 0, 0
      |0, 0, 0, 0, 0, 1, 0, 0, 0, 0, 0, 0, 0, 0, 0, 0, 0, 0, 0, 0, 0, 0
      |0, 0, 0, 0, 0, 0, 0, 0, 0, 0, 0, 0, 0, 0, 0, 0, 1, 0, 0, 0, 1, 0
      |0, 0, 0, 0, 0, 0, 0, 0, 0, 0, 0, 0, 0, 0, 0, 0, 0, 0, 0, 0, 0, 1
      |0, 0, 1, 0, 0, 0, 0, 1, 0, 1, 1, 0, 0, 0, 0, 0, 0, 0, 0, 0, 0, 0
      |0, 0, 0, 0, 0, 0, 0, 1, 1, 0, 0, 0, 0, 0, 0, 0, 0, 0, 0, 0, 0, 0
      |0, 0, 0, 0, 0, 1, 1, 0, 0, 0, 0, 0, 0, 0, 0, 0, 0, 0, 0, 0, 0, 1
      |0, 0, 0, 0, 0, 0, 1, 0, 0, 0, 1, 0, 0, 0, 0, 0, 0, 0, 0, 0, 0, 0
      |0, 0, 0, 0, 0, 1, 0, 0, 0, 0, 0, 0, 0, 0, 1, 0, 0, 1, 1, 0, 0, 0
      |0, 0, 0, 0, 0, 1, 0, 0, 1, 0, 0, 1, 0, 0, 0, 0, 0, 0, 0, 0, 1, 1
      |0, 0, 0, 0, 0, 0, 0, 0, 0, 0, 1, 0, 0, 0, 0, 1, 0, 0, 0, 0, 1, 0
      |0, 0, 0, 0, 0, 0, 0, 0, 0, 0, 0, 0, 0, 0, 0, 1, 0, 0, 0, 0, 1, 0
      |0, 0, 0, 0, 0, 0, 0, 0, 0, 0, 0, 0, 0, 0, 0, 0, 0, 0, 1, 0, 0, 0
      |0, 0, 0, 0, 0, 0, 0, 0, 0, 1, 0, 0, 0, 0, 0, 0, 0, 1, 0, 0, 0, 0
      |0, 0, 0, 0, 0, 0, 0, 0, 0, 0, 0, 1, 1, 0, 0, 0, 0, 0, 0, 0, 0, 0
      |0, 0, 0, 1, 0, 0, 0, 0, 0, 0, 0, 0, 0, 0, 0, 0, 0, 1, 0, 1, 0, 0
      |0, 0, 0, 0, 0, 0, 0, 0, 0, 1, 0, 0, 0, 0, 1, 0, 1, 0, 0, 0, 0, 0
      |0, 0, 0, 0, 0, 0, 0, 0, 0, 1, 0, 0, 0, 1, 0, 0, 0, 0, 0, 1, 0, 0
      |0, 0, 0, 0, 0, 0, 0, 0, 0, 0, 0, 0, 0, 0, 0, 0, 1, 0, 1, 0, 0, 1
      |0, 0, 0, 1, 0, 0, 0, 0, 0, 0, 1, 1, 1, 0, 0, 0, 0, 0, 0, 0, 0, 0
      |1, 0, 0, 0, 1, 0, 0, 1, 0, 0, 1, 0, 0, 0, 0, 0, 0, 0, 0, 1, 0, 0
      |];

% Weights matrix (edge weights)
% Weights = [|0, 1, 0, 0, 0, 0, 0, 0, 0, 0, 0, 0, 0, 0, 0, 0, 0, 0, 0, 0, 0, 1
%           |1, 0, 0, 0, 0, 0, 0, 0, 0, 0, 0, 0, 0, 0, 0, 0, 0, 0, 0, 0, 0, 0
%           |0, 0, 0, 0, 0, 1, 0, 0, 0, 0, 0, 0, 0, 0, 0, 0, 0, 0, 0, 0, 0, 0
%           |0, 0, 0, 0, 0, 0, 0, 0, 0, 0, 0, 0, 0, 0, 0, 0, 4, 0, 0, 0, 2, 0
%           |0, 0, 0, 0, 0, 0, 0, 0, 0, 0, 0, 0, 0, 0, 0, 0, 0, 0, 0, 0, 0, 4
%           |0, 0, 1, 0, 0, 0, 0, 1, 0, 2, 5, 0, 0, 0, 0, 0, 0, 0, 0, 0, 0, 0
%           |0, 0, 0, 0, 0, 0, 0, 5, 2, 0, 0, 0, 0, 0, 0, 0, 0, 0, 0, 0, 0, 0
%           |0, 0, 0, 0, 0, 1, 5, 0, 0, 0, 0, 0, 0, 0, 0, 0, 0, 0, 0, 0, 0, 2
%           |0, 0, 0, 0, 0, 0, 2, 0, 0, 0, 4, 0, 0, 0, 0, 0, 0, 0, 0, 0, 0, 0
%           |0, 0, 0, 0, 0, 2, 0, 0, 0, 0, 0, 0, 0, 0, 3, 0, 0, 5, 3, 0, 0, 0
%           |0, 0, 0, 0, 0, 5, 0, 0, 4, 0, 0, 2, 0, 0, 0, 0, 0, 0, 0, 0, 4, 4
%           |0, 0, 0, 0, 0, 0, 0, 0, 0, 0, 2, 0, 0, 0, 0, 1, 0, 0, 0, 0, 3, 0
%           |0, 0, 0, 0, 0, 0, 0, 0, 0, 0, 0, 0, 0, 0, 0, 3, 0, 0, 0, 0, 5, 0
%           |0, 0, 0, 0, 0, 0, 0, 0, 0, 0, 0, 0, 0, 0, 0, 0, 0, 0, 1, 0, 0, 0
%           |0, 0, 0, 0, 0, 0, 0, 0, 0, 3, 0, 0, 0, 0, 0, 0, 0, 4, 0, 0, 0, 0
%           |0, 0, 0, 0, 0, 0, 0, 0, 0, 0, 0, 1, 3, 0, 0, 0, 0, 0, 0, 0, 0, 0
%           |0, 0, 0, 4, 0, 0, 0, 0, 0, 0, 0, 0, 0, 0, 0, 0, 0, 1, 0, 5, 0, 0
%           |0, 0, 0, 0, 0, 0, 0, 0, 0, 5, 0, 0, 0, 0, 4, 0, 1, 0, 0, 0, 0, 0
%           |0, 0, 0, 0, 0, 0, 0, 0, 0, 3, 0, 0, 0, 1, 0, 0, 0, 0, 0, 3, 0, 0
%           |0, 0, 0, 0, 0, 0, 0, 0, 0, 0, 0, 0, 0, 0, 0, 0, 5, 0, 3, 0, 0, 2
%           |0, 0, 0, 2, 0, 0, 0, 0, 0, 0, 4, 3, 5, 0, 0, 0, 0, 0, 0, 0, 0, 0
%           |1, 0, 0, 0, 4, 0, 0, 2, 0, 0, 4, 0, 0, 0, 0, 0, 0, 0, 0, 2, 0, 0
%           |];

% Distance matrix
Dist = [|0, 1, 5, 11, 5, 4, 8, 3, 9, 6, 5, 7, 11, 7, 9, 8, 8, 9, 6, 3, 9, 1
      |1, 0, 6, 12, 6, 5, 9, 4, 10, 7, 6, 8, 12, 8, 10, 9, 9, 10, 7, 4, 10, 2
      |5, 6, 0, 12, 8, 1, 7, 2, 9, 3, 6, 8, 12, 7, 6, 9, 9, 8, 6, 6, 10, 4
      |11, 12, 12, 0, 14, 11, 12, 12, 10, 10, 6, 5, 7, 13, 9, 6, 4, 5, 12, 9, 2, 10
      |5, 6, 8, 14, 0, 7, 11, 6, 12, 9, 8, 10, 14, 10, 12, 11, 11, 12, 9, 6, 12, 4
      |4, 5, 1, 11, 7, 0, 6, 1, 8, 2, 5, 7, 11, 6, 5, 8, 8, 7, 5, 5, 9, 3
      |8, 9, 7, 12, 11, 6, 0, 5, 2, 8, 6, 8, 12, 12, 11, 9, 14, 13, 11, 9, 10, 7
      |3, 4, 2, 12, 6, 1, 5, 0, 7, 3, 6, 8, 12, 7, 6, 9, 9, 8, 6, 4, 10, 2
      |9, 10, 9, 10, 12, 8, 2, 7, 0, 10, 4, 6, 10, 14, 13, 7, 14, 15, 13, 10, 8, 8
      |6, 7, 3, 10, 9, 2, 8, 3, 10, 0, 7, 9, 13, 4, 3, 10, 6, 5, 3, 6, 11, 5
      |5, 6, 6, 6, 8, 5, 6, 6, 4, 7, 0, 2, 6, 10, 10, 3, 10, 11, 9, 6, 4, 4
      |7, 8, 8, 5, 10, 7, 8, 8, 6, 9, 2, 0, 4, 12, 12, 1, 9, 10, 11, 8, 3, 6
      |11, 12, 12, 7, 14, 11, 12, 12, 10, 13, 6, 4, 0, 16, 16, 3, 11, 12, 15, 12, 5, 10
      |7, 8, 7, 13, 10, 6, 12, 7, 14, 4, 10, 12, 16, 0, 7, 13, 9, 9, 1, 4, 14, 6
      |9, 10, 6, 9, 12, 5, 11, 6, 13, 3, 10, 12, 16, 7, 0, 13, 5, 4, 6, 9, 11, 8
      |8, 9, 9, 6, 11, 8, 9, 9, 7, 10, 3, 1, 3, 13, 13, 0, 10, 11, 12, 9, 4, 7
      |8, 9, 9, 4, 11, 8, 14, 9, 14, 6, 10, 9, 11, 9, 5, 10, 0, 1, 8, 5, 6, 7
      |9, 10, 8, 5, 12, 7, 13, 8, 15, 5, 11, 10, 12, 9, 4, 11, 1, 0, 8, 6, 7, 8
      |6, 7, 6, 12, 9, 5, 11, 6, 13, 3, 9, 11, 15, 1, 6, 12, 8, 8, 0, 3, 13, 5
      |3, 4, 6, 9, 6, 5, 9, 4, 10, 6, 6, 8, 12, 4, 9, 9, 5, 6, 3, 0, 10, 2
      |9, 10, 10, 2, 12, 9, 10, 10, 8, 11, 4, 3, 5, 14, 11, 4, 6, 7, 13, 10, 0, 8
      |1, 2, 4, 10, 4, 3, 7, 2, 8, 5, 4, 6, 10, 6, 8, 7, 7, 8, 5, 2, 8, 0
      |];

% Initial object distribution
S_init = [0, 0, 0, 0, 0, 0, 0, 0, 0, 1, 0, 0, 1, 0, 1, 0, 1, 0, 1, 0, 0, 0];

% Target nodes (1 if target, 0 otherwise)
T = [0, 0, 0, 1, 0, 0, 0, 0, 0, 0, 0, 0, 0, 1, 0, 0, 0, 0, 0, 0, 1, 1];

% Initial truck position (1-based indexing)
u = 11;

% --- DEBUG TRACE ---
% --- GENERATION TRACE (Backwards from Target) ---
% Initial distribution (all on targets): [0, 0, 0, 2, 0, 0, 0, 0, 0, 0, 0, 0, 0, 1, 0, 0, 0, 0, 0, 0, 1, 1]
% Step 1: Selected target node 21 (has 1 objects)
% Step 1: Moved object 21 -> 13
% Step 1: Distribution: [0, 0, 0, 2, 0, 0, 0, 0, 0, 0, 0, 0, 1, 1, 0, 0, 0, 0, 0, 0, 0, 1]
% Step 2: Selected target node 4 (has 2 objects)
% Step 2: Moved object 4 -> 17
% Step 2: Distribution: [0, 0, 0, 1, 0, 0, 0, 0, 0, 0, 0, 0, 1, 1, 0, 0, 1, 0, 0, 0, 0, 1]
% Step 3: Selected target node 22 (has 1 objects)
% Step 3: Moved object 22 -> 8
% Step 3: Distribution: [0, 0, 0, 1, 0, 0, 0, 1, 0, 0, 0, 0, 1, 1, 0, 0, 1, 0, 0, 0, 0, 0]
% Step 4: Selected target node 14 (has 1 objects)
% Step 4: Moved object 14 -> 19
% Step 4: Distribution: [0, 0, 0, 1, 0, 0, 0, 1, 0, 0, 0, 0, 1, 0, 0, 0, 1, 0, 1, 0, 0, 0]
% Step 5: Selected target node 4 (has 1 objects)
% Step 5: Moved object 4 -> 17
% Step 5: Distribution: [0, 0, 0, 0, 0, 0, 0, 1, 0, 0, 0, 0, 1, 0, 0, 0, 2, 0, 1, 0, 0, 0]
% Step 6: Selected non-target node 19 (has 1 objects)
% Step 6: Avoiding backtrack to node 14
% Step 6: Moved object 19 -> 10
% Step 6: Distribution: [0, 0, 0, 0, 0, 0, 0, 1, 0, 1, 0, 0, 1, 0, 0, 0, 2, 0, 0, 0, 0, 0]
% Step 7: Selected non-target node 17 (has 2 objects)
% Step 7: Avoiding backtrack to node 4
% Step 7: Moved object 17 -> 20
% Step 7: Distribution: [0, 0, 0, 0, 0, 0, 0, 1, 0, 1, 0, 0, 1, 0, 0, 0, 1, 0, 0, 1, 0, 0]
% Step 8: Selected non-target node 17 (has 1 objects)
% Step 8: Avoiding backtrack to node 4
% Step 8: Moved object 17 -> 18
% Step 8: Distribution: [0, 0, 0, 0, 0, 0, 0, 1, 0, 1, 0, 0, 1, 0, 0, 0, 0, 1, 0, 1, 0, 0]
% Step 9: Selected non-target node 10 (has 1 objects)
% Step 9: Avoiding backtrack to node 19
% Step 9: Moved object 10 -> 18
% Step 9: Distribution: [0, 0, 0, 0, 0, 0, 0, 1, 0, 0, 0, 0, 1, 0, 0, 0, 0, 2, 0, 1, 0, 0]
% Step 10: Selected non-target node 18 (has 2 objects)
% Step 10: Avoiding backtrack to node 10
% Step 10: Moved object 18 -> 17
% Step 10: Distribution: [0, 0, 0, 0, 0, 0, 0, 1, 0, 0, 0, 0, 1, 0, 0, 0, 1, 1, 0, 1, 0, 0]
% Step 11: Selected non-target node 8 (has 1 objects)
% Step 11: Avoiding backtrack to node 22
% Step 11: Moved object 8 -> 6
% Step 11: Distribution: [0, 0, 0, 0, 0, 1, 0, 0, 0, 0, 0, 0, 1, 0, 0, 0, 1, 1, 0, 1, 0, 0]
% Step 12: Selected non-target node 18 (has 1 objects)
% Step 12: Avoiding backtrack to node 10
% Step 12: Moved object 18 -> 15
% Step 12: Distribution: [0, 0, 0, 0, 0, 1, 0, 0, 0, 0, 0, 0, 1, 0, 1, 0, 1, 0, 0, 1, 0, 0]
% Step 13: Selected non-target node 6 (has 1 objects)
% Step 13: Avoiding backtrack to node 8
% Step 13: Moved object 6 -> 10
% Step 13: Distribution: [0, 0, 0, 0, 0, 0, 0, 0, 0, 1, 0, 0, 1, 0, 1, 0, 1, 0, 0, 1, 0, 0]
% Step 14: Selected non-target node 20 (has 1 objects)
% Step 14: Avoiding backtrack to node 17
% Step 14: Moved object 20 -> 19
% Step 14: Distribution: [0, 0, 0, 0, 0, 0, 0, 0, 0, 1, 0, 0, 1, 0, 1, 0, 1, 0, 1, 0, 0, 0]
% Truck starting position: 11
