% instance_n22_c0_k17_i64.dzn
% Generated instance for the Trucks problem
% N=22, h=5, k=17

% Number of nodes
N = 22;

% Number of objects
h = 5;

% Maximum plan length
%k = 17;

% Adjacency matrix (0-based internal, will be converted to 1-based)
Adj = [|0, 0, 1, 0, 1, 0, 0, 0, 0, 0, 0, 0, 0, 0, 0, 0, 0, 0, 0, 1, 1, 0
      |0, 0, 0, 0, 0, 0, 0, 0, 0, 0, 0, 0, 0, 0, 0, 0, 0, 0, 0, 0, 0, 1
      |1, 0, 0, 0, 0, 0, 0, 0, 0, 0, 0, 0, 0, 0, 0, 0, 1, 0, 0, 0, 0, 0
      |0, 0, 0, 0, 0, 0, 0, 0, 0, 0, 0, 0, 0, 0, 1, 0, 0, 0, 0, 0, 1, 0
      |1, 0, 0, 0, 0, 0, 0, 1, 0, 0, 0, 0, 0, 0, 0, 1, 0, 0, 0, 0, 0, 0
      |0, 0, 0, 0, 0, 0, 0, 0, 0, 1, 0, 0, 1, 0, 1, 0, 0, 0, 0, 0, 0, 0
      |0, 0, 0, 0, 0, 0, 0, 0, 0, 1, 0, 0, 0, 1, 0, 0, 0, 0, 0, 0, 0, 0
      |0, 0, 0, 0, 1, 0, 0, 0, 0, 0, 0, 1, 0, 0, 0, 0, 0, 0, 0, 0, 0, 1
      |0, 0, 0, 0, 0, 0, 0, 0, 0, 0, 1, 0, 0, 0, 0, 0, 0, 0, 1, 0, 0, 0
      |0, 0, 0, 0, 0, 1, 1, 0, 0, 0, 0, 0, 1, 0, 0, 0, 0, 0, 0, 0, 0, 1
      |0, 0, 0, 0, 0, 0, 0, 0, 1, 0, 0, 0, 0, 1, 0, 0, 0, 1, 0, 0, 0, 0
      |0, 0, 0, 0, 0, 0, 0, 1, 0, 0, 0, 0, 0, 0, 0, 0, 0, 0, 0, 0, 0, 0
      |0, 0, 0, 0, 0, 1, 0, 0, 0, 1, 0, 0, 0, 0, 0, 0, 0, 0, 0, 0, 1, 1
      |0, 0, 0, 0, 0, 0, 1, 0, 0, 0, 1, 0, 0, 0, 1, 0, 0, 0, 0, 0, 0, 0
      |0, 0, 0, 1, 0, 1, 0, 0, 0, 0, 0, 0, 0, 1, 0, 0, 0, 0, 0, 0, 0, 0
      |0, 0, 0, 0, 1, 0, 0, 0, 0, 0, 0, 0, 0, 0, 0, 0, 0, 0, 0, 0, 0, 0
      |0, 0, 1, 0, 0, 0, 0, 0, 0, 0, 0, 0, 0, 0, 0, 0, 0, 0, 1, 0, 0, 0
      |0, 0, 0, 0, 0, 0, 0, 0, 0, 0, 1, 0, 0, 0, 0, 0, 0, 0, 0, 0, 1, 0
      |0, 0, 0, 0, 0, 0, 0, 0, 1, 0, 0, 0, 0, 0, 0, 0, 1, 0, 0, 0, 0, 0
      |1, 0, 0, 0, 0, 0, 0, 0, 0, 0, 0, 0, 0, 0, 0, 0, 0, 0, 0, 0, 0, 0
      |1, 0, 0, 1, 0, 0, 0, 0, 0, 0, 0, 0, 1, 0, 0, 0, 0, 1, 0, 0, 0, 0
      |0, 1, 0, 0, 0, 0, 0, 1, 0, 1, 0, 0, 1, 0, 0, 0, 0, 0, 0, 0, 0, 0
      |];

% Weights matrix (edge weights)
% Weights = [|0, 0, 3, 0, 4, 0, 0, 0, 0, 0, 0, 0, 0, 0, 0, 0, 0, 0, 0, 2, 4, 0
%           |0, 0, 0, 0, 0, 0, 0, 0, 0, 0, 0, 0, 0, 0, 0, 0, 0, 0, 0, 0, 0, 2
%           |3, 0, 0, 0, 0, 0, 0, 0, 0, 0, 0, 0, 0, 0, 0, 0, 4, 0, 0, 0, 0, 0
%           |0, 0, 0, 0, 0, 0, 0, 0, 0, 0, 0, 0, 0, 0, 4, 0, 0, 0, 0, 0, 2, 0
%           |4, 0, 0, 0, 0, 0, 0, 2, 0, 0, 0, 0, 0, 0, 0, 1, 0, 0, 0, 0, 0, 0
%           |0, 0, 0, 0, 0, 0, 0, 0, 0, 3, 0, 0, 1, 0, 1, 0, 0, 0, 0, 0, 0, 0
%           |0, 0, 0, 0, 0, 0, 0, 0, 0, 2, 0, 0, 0, 3, 0, 0, 0, 0, 0, 0, 0, 0
%           |0, 0, 0, 0, 2, 0, 0, 0, 0, 0, 0, 3, 0, 0, 0, 0, 0, 0, 0, 0, 0, 2
%           |0, 0, 0, 0, 0, 0, 0, 0, 0, 0, 5, 0, 0, 0, 0, 0, 0, 0, 4, 0, 0, 0
%           |0, 0, 0, 0, 0, 3, 2, 0, 0, 0, 0, 0, 4, 0, 0, 0, 0, 0, 0, 0, 0, 1
%           |0, 0, 0, 0, 0, 0, 0, 0, 5, 0, 0, 0, 0, 2, 0, 0, 0, 5, 0, 0, 0, 0
%           |0, 0, 0, 0, 0, 0, 0, 3, 0, 0, 0, 0, 0, 0, 0, 0, 0, 0, 0, 0, 0, 0
%           |0, 0, 0, 0, 0, 1, 0, 0, 0, 4, 0, 0, 0, 0, 0, 0, 0, 0, 0, 0, 3, 5
%           |0, 0, 0, 0, 0, 0, 3, 0, 0, 0, 2, 0, 0, 0, 4, 0, 0, 0, 0, 0, 0, 0
%           |0, 0, 0, 4, 0, 1, 0, 0, 0, 0, 0, 0, 0, 4, 0, 0, 0, 0, 0, 0, 0, 0
%           |0, 0, 0, 0, 1, 0, 0, 0, 0, 0, 0, 0, 0, 0, 0, 0, 0, 0, 0, 0, 0, 0
%           |0, 0, 4, 0, 0, 0, 0, 0, 0, 0, 0, 0, 0, 0, 0, 0, 0, 0, 4, 0, 0, 0
%           |0, 0, 0, 0, 0, 0, 0, 0, 0, 0, 5, 0, 0, 0, 0, 0, 0, 0, 0, 0, 4, 0
%           |0, 0, 0, 0, 0, 0, 0, 0, 4, 0, 0, 0, 0, 0, 0, 0, 4, 0, 0, 0, 0, 0
%           |2, 0, 0, 0, 0, 0, 0, 0, 0, 0, 0, 0, 0, 0, 0, 0, 0, 0, 0, 0, 0, 0
%           |4, 0, 0, 2, 0, 0, 0, 0, 0, 0, 0, 0, 3, 0, 0, 0, 0, 4, 0, 0, 0, 0
%           |0, 2, 0, 0, 0, 0, 0, 2, 0, 1, 0, 0, 5, 0, 0, 0, 0, 0, 0, 0, 0, 0
%           |];

% Distance matrix
Dist = [|0, 10, 3, 6, 4, 8, 11, 6, 15, 9, 13, 9, 7, 13, 9, 5, 7, 8, 11, 2, 4, 8
      |10, 0, 13, 11, 6, 6, 5, 4, 15, 3, 10, 7, 7, 8, 7, 7, 17, 14, 19, 12, 10, 2
      |3, 13, 0, 9, 7, 11, 14, 9, 12, 12, 16, 12, 10, 16, 12, 8, 4, 11, 8, 5, 7, 11
      |6, 11, 9, 0, 10, 5, 10, 11, 15, 8, 10, 14, 5, 8, 4, 11, 13, 6, 17, 8, 2, 9
      |4, 6, 7, 10, 0, 8, 7, 2, 17, 5, 12, 5, 9, 10, 9, 1, 11, 12, 15, 6, 8, 4
      |8, 6, 11, 5, 8, 0, 5, 6, 12, 3, 7, 9, 1, 5, 1, 9, 15, 8, 16, 10, 4, 4
      |11, 5, 14, 10, 7, 5, 0, 5, 10, 2, 5, 8, 6, 3, 6, 8, 18, 10, 14, 13, 9, 3
      |6, 4, 9, 11, 2, 6, 5, 0, 15, 3, 10, 3, 7, 8, 7, 3, 13, 14, 17, 8, 10, 2
      |15, 15, 12, 15, 17, 12, 10, 15, 0, 12, 5, 18, 13, 7, 11, 18, 8, 10, 4, 17, 14, 13
      |9, 3, 12, 8, 5, 3, 2, 3, 12, 0, 7, 6, 4, 5, 4, 6, 16, 11, 16, 11, 7, 1
      |13, 10, 16, 10, 12, 7, 5, 10, 5, 7, 0, 13, 8, 2, 6, 13, 13, 5, 9, 15, 9, 8
      |9, 7, 12, 14, 5, 9, 8, 3, 18, 6, 13, 0, 10, 11, 10, 6, 16, 17, 20, 11, 13, 5
      |7, 7, 10, 5, 9, 1, 6, 7, 13, 4, 8, 10, 0, 6, 2, 10, 14, 7, 17, 9, 3, 5
      |13, 8, 16, 8, 10, 5, 3, 8, 7, 5, 2, 11, 6, 0, 4, 11, 15, 7, 11, 15, 9, 6
      |9, 7, 12, 4, 9, 1, 6, 7, 11, 4, 6, 10, 2, 4, 0, 10, 16, 9, 15, 11, 5, 5
      |5, 7, 8, 11, 1, 9, 8, 3, 18, 6, 13, 6, 10, 11, 10, 0, 12, 13, 16, 7, 9, 5
      |7, 17, 4, 13, 11, 15, 18, 13, 8, 16, 13, 16, 14, 15, 16, 12, 0, 15, 4, 9, 11, 15
      |8, 14, 11, 6, 12, 8, 10, 14, 10, 11, 5, 17, 7, 7, 9, 13, 15, 0, 14, 10, 4, 12
      |11, 19, 8, 17, 15, 16, 14, 17, 4, 16, 9, 20, 17, 11, 15, 16, 4, 14, 0, 13, 15, 17
      |2, 12, 5, 8, 6, 10, 13, 8, 17, 11, 15, 11, 9, 15, 11, 7, 9, 10, 13, 0, 6, 10
      |4, 10, 7, 2, 8, 4, 9, 10, 14, 7, 9, 13, 3, 9, 5, 9, 11, 4, 15, 6, 0, 8
      |8, 2, 11, 9, 4, 4, 3, 2, 13, 1, 8, 5, 5, 6, 5, 5, 15, 12, 17, 10, 8, 0
      |];

% Initial object distribution
S_init = [0, 0, 0, 0, 0, 0, 0, 0, 0, 1, 1, 0, 1, 1, 0, 1, 0, 0, 0, 0, 0, 0];

% Target nodes (1 if target, 0 otherwise)
T = [0, 0, 1, 0, 1, 1, 0, 0, 0, 0, 0, 0, 0, 0, 0, 0, 0, 1, 0, 0, 0, 1];

% Initial truck position (1-based indexing)
u = 8;

% --- DEBUG TRACE ---
% --- GENERATION TRACE (Backwards from Target) ---
% Initial distribution (all on targets): [0, 0, 1, 0, 1, 1, 0, 0, 0, 0, 0, 0, 0, 0, 0, 0, 0, 1, 0, 0, 0, 1]
% Step 1: Selected target node 3 (has 1 objects)
% Step 1: Moved object 3 -> 1
% Step 1: Distribution: [1, 0, 0, 0, 1, 1, 0, 0, 0, 0, 0, 0, 0, 0, 0, 0, 0, 1, 0, 0, 0, 1]
% Step 2: Selected target node 6 (has 1 objects)
% Step 2: Moved object 6 -> 15
% Step 2: Distribution: [1, 0, 0, 0, 1, 0, 0, 0, 0, 0, 0, 0, 0, 0, 1, 0, 0, 1, 0, 0, 0, 1]
% Step 3: Selected target node 5 (has 1 objects)
% Step 3: Moved object 5 -> 16
% Step 3: Distribution: [1, 0, 0, 0, 0, 0, 0, 0, 0, 0, 0, 0, 0, 0, 1, 1, 0, 1, 0, 0, 0, 1]
% Step 4: Selected target node 22 (has 1 objects)
% Step 4: Moved object 22 -> 10
% Step 4: Distribution: [1, 0, 0, 0, 0, 0, 0, 0, 0, 1, 0, 0, 0, 0, 1, 1, 0, 1, 0, 0, 0, 0]
% Step 5: Selected target node 18 (has 1 objects)
% Step 5: Moved object 18 -> 21
% Step 5: Distribution: [1, 0, 0, 0, 0, 0, 0, 0, 0, 1, 0, 0, 0, 0, 1, 1, 0, 0, 0, 0, 1, 0]
% Step 6: Selected non-target node 10 (has 1 objects)
% Step 6: Avoiding backtrack to node 22
% Step 6: Moved object 10 -> 7
% Step 6: Distribution: [1, 0, 0, 0, 0, 0, 1, 0, 0, 0, 0, 0, 0, 0, 1, 1, 0, 0, 0, 0, 1, 0]
% Step 7: Selected non-target node 15 (has 1 objects)
% Step 7: Avoiding backtrack to node 6
% Step 7: Moved object 15 -> 4
% Step 7: Distribution: [1, 0, 0, 1, 0, 0, 1, 0, 0, 0, 0, 0, 0, 0, 0, 1, 0, 0, 0, 0, 1, 0]
% Step 8: Selected non-target node 4 (has 1 objects)
% Step 8: Avoiding backtrack to node 15
% Step 8: Moved object 4 -> 21
% Step 8: Distribution: [1, 0, 0, 0, 0, 0, 1, 0, 0, 0, 0, 0, 0, 0, 0, 1, 0, 0, 0, 0, 2, 0]
% Step 9: Selected non-target node 7 (has 1 objects)
% Step 9: Avoiding backtrack to node 10
% Step 9: Moved object 7 -> 14
% Step 9: Distribution: [1, 0, 0, 0, 0, 0, 0, 0, 0, 0, 0, 0, 0, 1, 0, 1, 0, 0, 0, 0, 2, 0]
% Step 10: Selected non-target node 1 (has 1 objects)
% Step 10: Avoiding backtrack to node 3
% Step 10: Moved object 1 -> 21
% Step 10: Distribution: [0, 0, 0, 0, 0, 0, 0, 0, 0, 0, 0, 0, 0, 1, 0, 1, 0, 0, 0, 0, 3, 0]
% Step 11: Selected non-target node 21 (has 3 objects)
% Step 11: Avoiding backtrack to node 1
% Step 11: Moved object 21 -> 4
% Step 11: Distribution: [0, 0, 0, 1, 0, 0, 0, 0, 0, 0, 0, 0, 0, 1, 0, 1, 0, 0, 0, 0, 2, 0]
% Step 12: Selected non-target node 4 (has 1 objects)
% Step 12: Avoiding backtrack to node 21
% Step 12: Moved object 4 -> 15
% Step 12: Distribution: [0, 0, 0, 0, 0, 0, 0, 0, 0, 0, 0, 0, 0, 1, 1, 1, 0, 0, 0, 0, 2, 0]
% Step 13: Selected non-target node 16 (has 1 objects)
% Step 13: Selected non-target node 15 (has 1 objects)
% Step 13: Avoiding backtrack to node 4
% Step 13: Moved object 15 -> 14
% Step 13: Distribution: [0, 0, 0, 0, 0, 0, 0, 0, 0, 0, 0, 0, 0, 2, 0, 1, 0, 0, 0, 0, 2, 0]
% Step 14: Selected non-target node 16 (has 1 objects)
% Step 14: Selected non-target node 21 (has 2 objects)
% Step 14: Avoiding backtrack to node 1
% Step 14: Moved object 21 -> 13
% Step 14: Distribution: [0, 0, 0, 0, 0, 0, 0, 0, 0, 0, 0, 0, 1, 2, 0, 1, 0, 0, 0, 0, 1, 0]
% Step 15: Selected non-target node 21 (has 1 objects)
% Step 15: Avoiding backtrack to node 1
% Step 15: Moved object 21 -> 13
% Step 15: Distribution: [0, 0, 0, 0, 0, 0, 0, 0, 0, 0, 0, 0, 2, 2, 0, 1, 0, 0, 0, 0, 0, 0]
% Step 16: Selected non-target node 16 (has 1 objects)
% Step 16: Selected non-target node 13 (has 2 objects)
% Step 16: Avoiding backtrack to node 21
% Step 16: Moved object 13 -> 10
% Step 16: Distribution: [0, 0, 0, 0, 0, 0, 0, 0, 0, 1, 0, 0, 1, 2, 0, 1, 0, 0, 0, 0, 0, 0]
% Step 17: Selected non-target node 16 (has 1 objects)
% Step 17: Selected non-target node 14 (has 2 objects)
% Step 17: Avoiding backtrack to node 15
% Step 17: Moved object 14 -> 11
% Step 17: Distribution: [0, 0, 0, 0, 0, 0, 0, 0, 0, 1, 1, 0, 1, 1, 0, 1, 0, 0, 0, 0, 0, 0]
% Truck starting position: 8
