% instance_n26_c0_k17_i84.dzn
% Generated instance for the Trucks problem
% N=26, h=6, k=17

% Number of nodes
N = 26;

% Number of objects
h = 6;

% Maximum plan length
%k = 17;

% Adjacency matrix (0-based internal, will be converted to 1-based)
Adj = [|0, 0, 0, 0, 0, 0, 0, 0, 0, 0, 0, 1, 0, 0, 0, 0, 0, 1, 0, 0, 0, 0, 0, 0, 0, 0
      |0, 0, 0, 1, 0, 0, 0, 0, 0, 0, 1, 0, 0, 0, 0, 0, 0, 0, 0, 0, 0, 0, 0, 0, 0, 0
      |0, 0, 0, 0, 0, 0, 0, 0, 1, 0, 0, 0, 0, 0, 0, 0, 0, 0, 0, 0, 1, 0, 0, 0, 0, 0
      |0, 1, 0, 0, 0, 1, 0, 0, 0, 1, 0, 0, 0, 0, 0, 0, 0, 0, 0, 0, 0, 0, 0, 0, 1, 0
      |0, 0, 0, 0, 0, 0, 0, 0, 0, 0, 0, 0, 0, 1, 0, 0, 0, 0, 0, 0, 0, 0, 0, 0, 1, 0
      |0, 0, 0, 1, 0, 0, 0, 0, 0, 0, 0, 0, 0, 0, 0, 0, 0, 0, 1, 0, 0, 0, 1, 0, 0, 0
      |0, 0, 0, 0, 0, 0, 0, 1, 0, 0, 1, 0, 0, 0, 0, 0, 0, 0, 0, 0, 0, 1, 0, 0, 0, 0
      |0, 0, 0, 0, 0, 0, 1, 0, 0, 0, 0, 0, 0, 0, 0, 0, 0, 0, 0, 0, 0, 0, 0, 0, 0, 1
      |0, 0, 1, 0, 0, 0, 0, 0, 0, 0, 0, 0, 0, 0, 0, 0, 0, 1, 0, 0, 0, 0, 0, 0, 0, 0
      |0, 0, 0, 1, 0, 0, 0, 0, 0, 0, 0, 0, 0, 1, 0, 0, 0, 0, 1, 0, 0, 0, 0, 0, 0, 0
      |0, 1, 0, 0, 0, 0, 1, 0, 0, 0, 0, 0, 0, 0, 0, 0, 0, 0, 0, 0, 0, 0, 0, 0, 0, 1
      |1, 0, 0, 0, 0, 0, 0, 0, 0, 0, 0, 0, 0, 0, 0, 1, 0, 0, 0, 0, 1, 0, 1, 1, 0, 0
      |0, 0, 0, 0, 0, 0, 0, 0, 0, 0, 0, 0, 0, 0, 0, 0, 1, 0, 0, 0, 0, 0, 0, 0, 1, 0
      |0, 0, 0, 0, 1, 0, 0, 0, 0, 1, 0, 0, 0, 0, 0, 0, 0, 1, 0, 0, 0, 1, 0, 0, 0, 0
      |0, 0, 0, 0, 0, 0, 0, 0, 0, 0, 0, 0, 0, 0, 0, 0, 0, 1, 0, 0, 0, 0, 0, 0, 0, 0
      |0, 0, 0, 0, 0, 0, 0, 0, 0, 0, 0, 1, 0, 0, 0, 0, 0, 1, 0, 0, 0, 0, 0, 0, 0, 0
      |0, 0, 0, 0, 0, 0, 0, 0, 0, 0, 0, 0, 1, 0, 0, 0, 0, 0, 0, 0, 1, 0, 0, 0, 0, 0
      |1, 0, 0, 0, 0, 0, 0, 0, 1, 0, 0, 0, 0, 1, 1, 1, 0, 0, 0, 0, 0, 0, 0, 0, 0, 0
      |0, 0, 0, 0, 0, 1, 0, 0, 0, 1, 0, 0, 0, 0, 0, 0, 0, 0, 0, 0, 0, 0, 0, 0, 0, 0
      |0, 0, 0, 0, 0, 0, 0, 0, 0, 0, 0, 0, 0, 0, 0, 0, 0, 0, 0, 0, 0, 1, 0, 0, 0, 0
      |0, 0, 1, 0, 0, 0, 0, 0, 0, 0, 0, 1, 0, 0, 0, 0, 1, 0, 0, 0, 0, 0, 0, 0, 0, 0
      |0, 0, 0, 0, 0, 0, 1, 0, 0, 0, 0, 0, 0, 1, 0, 0, 0, 0, 0, 1, 0, 0, 1, 0, 0, 0
      |0, 0, 0, 0, 0, 1, 0, 0, 0, 0, 0, 1, 0, 0, 0, 0, 0, 0, 0, 0, 0, 1, 0, 0, 0, 0
      |0, 0, 0, 0, 0, 0, 0, 0, 0, 0, 0, 1, 0, 0, 0, 0, 0, 0, 0, 0, 0, 0, 0, 0, 1, 0
      |0, 0, 0, 1, 1, 0, 0, 0, 0, 0, 0, 0, 1, 0, 0, 0, 0, 0, 0, 0, 0, 0, 0, 1, 0, 0
      |0, 0, 0, 0, 0, 0, 0, 1, 0, 0, 1, 0, 0, 0, 0, 0, 0, 0, 0, 0, 0, 0, 0, 0, 0, 0
      |];

% Weights matrix (edge weights)
% Weights = [|0, 0, 0, 0, 0, 0, 0, 0, 0, 0, 0, 4, 0, 0, 0, 0, 0, 5, 0, 0, 0, 0, 0, 0, 0, 0
%           |0, 0, 0, 2, 0, 0, 0, 0, 0, 0, 4, 0, 0, 0, 0, 0, 0, 0, 0, 0, 0, 0, 0, 0, 0, 0
%           |0, 0, 0, 0, 0, 0, 0, 0, 2, 0, 0, 0, 0, 0, 0, 0, 0, 0, 0, 0, 4, 0, 0, 0, 0, 0
%           |0, 2, 0, 0, 0, 4, 0, 0, 0, 2, 0, 0, 0, 0, 0, 0, 0, 0, 0, 0, 0, 0, 0, 0, 2, 0
%           |0, 0, 0, 0, 0, 0, 0, 0, 0, 0, 0, 0, 0, 3, 0, 0, 0, 0, 0, 0, 0, 0, 0, 0, 4, 0
%           |0, 0, 0, 4, 0, 0, 0, 0, 0, 0, 0, 0, 0, 0, 0, 0, 0, 0, 5, 0, 0, 0, 3, 0, 0, 0
%           |0, 0, 0, 0, 0, 0, 0, 3, 0, 0, 5, 0, 0, 0, 0, 0, 0, 0, 0, 0, 0, 4, 0, 0, 0, 0
%           |0, 0, 0, 0, 0, 0, 3, 0, 0, 0, 0, 0, 0, 0, 0, 0, 0, 0, 0, 0, 0, 0, 0, 0, 0, 2
%           |0, 0, 2, 0, 0, 0, 0, 0, 0, 0, 0, 0, 0, 0, 0, 0, 0, 4, 0, 0, 0, 0, 0, 0, 0, 0
%           |0, 0, 0, 2, 0, 0, 0, 0, 0, 0, 0, 0, 0, 4, 0, 0, 0, 0, 2, 0, 0, 0, 0, 0, 0, 0
%           |0, 4, 0, 0, 0, 0, 5, 0, 0, 0, 0, 0, 0, 0, 0, 0, 0, 0, 0, 0, 0, 0, 0, 0, 0, 2
%           |4, 0, 0, 0, 0, 0, 0, 0, 0, 0, 0, 0, 0, 0, 0, 2, 0, 0, 0, 0, 5, 0, 3, 3, 0, 0
%           |0, 0, 0, 0, 0, 0, 0, 0, 0, 0, 0, 0, 0, 0, 0, 0, 5, 0, 0, 0, 0, 0, 0, 0, 4, 0
%           |0, 0, 0, 0, 3, 0, 0, 0, 0, 4, 0, 0, 0, 0, 0, 0, 0, 2, 0, 0, 0, 3, 0, 0, 0, 0
%           |0, 0, 0, 0, 0, 0, 0, 0, 0, 0, 0, 0, 0, 0, 0, 0, 0, 5, 0, 0, 0, 0, 0, 0, 0, 0
%           |0, 0, 0, 0, 0, 0, 0, 0, 0, 0, 0, 2, 0, 0, 0, 0, 0, 3, 0, 0, 0, 0, 0, 0, 0, 0
%           |0, 0, 0, 0, 0, 0, 0, 0, 0, 0, 0, 0, 5, 0, 0, 0, 0, 0, 0, 0, 4, 0, 0, 0, 0, 0
%           |5, 0, 0, 0, 0, 0, 0, 0, 4, 0, 0, 0, 0, 2, 5, 3, 0, 0, 0, 0, 0, 0, 0, 0, 0, 0
%           |0, 0, 0, 0, 0, 5, 0, 0, 0, 2, 0, 0, 0, 0, 0, 0, 0, 0, 0, 0, 0, 0, 0, 0, 0, 0
%           |0, 0, 0, 0, 0, 0, 0, 0, 0, 0, 0, 0, 0, 0, 0, 0, 0, 0, 0, 0, 0, 1, 0, 0, 0, 0
%           |0, 0, 4, 0, 0, 0, 0, 0, 0, 0, 0, 5, 0, 0, 0, 0, 4, 0, 0, 0, 0, 0, 0, 0, 0, 0
%           |0, 0, 0, 0, 0, 0, 4, 0, 0, 0, 0, 0, 0, 3, 0, 0, 0, 0, 0, 1, 0, 0, 3, 0, 0, 0
%           |0, 0, 0, 0, 0, 3, 0, 0, 0, 0, 0, 3, 0, 0, 0, 0, 0, 0, 0, 0, 0, 3, 0, 0, 0, 0
%           |0, 0, 0, 0, 0, 0, 0, 0, 0, 0, 0, 3, 0, 0, 0, 0, 0, 0, 0, 0, 0, 0, 0, 0, 3, 0
%           |0, 0, 0, 2, 4, 0, 0, 0, 0, 0, 0, 0, 4, 0, 0, 0, 0, 0, 0, 0, 0, 0, 0, 3, 0, 0
%           |0, 0, 0, 0, 0, 0, 0, 2, 0, 0, 2, 0, 0, 0, 0, 0, 0, 0, 0, 0, 0, 0, 0, 0, 0, 0
%           |];

% Distance matrix
Dist = [|0, 14, 11, 12, 10, 10, 14, 17, 9, 11, 18, 4, 14, 7, 10, 6, 13, 5, 13, 11, 9, 10, 7, 7, 10, 19
      |14, 0, 16, 2, 8, 6, 9, 8, 14, 4, 4, 10, 8, 8, 15, 12, 13, 10, 6, 12, 15, 11, 9, 7, 4, 6
      |11, 16, 0, 14, 11, 15, 15, 18, 2, 12, 20, 9, 13, 8, 11, 9, 8, 6, 14, 12, 4, 11, 12, 12, 15, 20
      |12, 2, 14, 0, 6, 4, 11, 10, 12, 2, 6, 8, 6, 6, 13, 10, 11, 8, 4, 10, 13, 9, 7, 5, 2, 8
      |10, 8, 11, 6, 0, 10, 10, 13, 9, 7, 12, 10, 8, 3, 10, 8, 13, 5, 9, 7, 15, 6, 9, 7, 4, 14
      |10, 6, 15, 4, 10, 0, 10, 13, 15, 6, 10, 6, 10, 9, 16, 8, 15, 11, 5, 7, 11, 6, 3, 9, 6, 12
      |14, 9, 15, 11, 10, 10, 0, 3, 13, 11, 5, 10, 17, 7, 14, 12, 19, 9, 13, 5, 15, 4, 7, 13, 13, 5
      |17, 8, 18, 10, 13, 13, 3, 0, 16, 12, 4, 13, 16, 10, 17, 15, 21, 12, 14, 8, 18, 7, 10, 15, 12, 2
      |9, 14, 2, 12, 9, 15, 13, 16, 0, 10, 18, 9, 15, 6, 9, 7, 10, 4, 12, 10, 6, 9, 12, 12, 13, 18
      |11, 4, 12, 2, 7, 6, 11, 12, 10, 0, 8, 10, 8, 4, 11, 9, 13, 6, 2, 8, 15, 7, 9, 7, 4, 10
      |18, 4, 20, 6, 12, 10, 5, 4, 18, 8, 0, 14, 12, 12, 19, 16, 17, 14, 10, 10, 19, 9, 12, 11, 8, 2
      |4, 10, 9, 8, 10, 6, 10, 13, 9, 10, 14, 0, 10, 7, 10, 2, 9, 5, 11, 7, 5, 6, 3, 3, 6, 15
      |14, 8, 13, 6, 8, 10, 17, 16, 15, 8, 12, 10, 0, 11, 18, 12, 5, 13, 10, 15, 9, 14, 13, 7, 4, 14
      |7, 8, 8, 6, 3, 9, 7, 10, 6, 4, 12, 7, 11, 0, 7, 5, 16, 2, 6, 4, 12, 3, 6, 10, 7, 12
      |10, 15, 11, 13, 10, 16, 14, 17, 9, 11, 19, 10, 18, 7, 0, 8, 19, 5, 13, 11, 15, 10, 13, 13, 14, 19
      |6, 12, 9, 10, 8, 8, 12, 15, 7, 9, 16, 2, 12, 5, 8, 0, 11, 3, 11, 9, 7, 8, 5, 5, 8, 17
      |13, 13, 8, 11, 13, 15, 19, 21, 10, 13, 17, 9, 5, 16, 19, 11, 0, 14, 15, 16, 4, 15, 12, 12, 9, 19
      |5, 10, 6, 8, 5, 11, 9, 12, 4, 6, 14, 5, 13, 2, 5, 3, 14, 0, 8, 6, 10, 5, 8, 8, 9, 14
      |13, 6, 14, 4, 9, 5, 13, 14, 12, 2, 10, 11, 10, 6, 13, 11, 15, 8, 0, 10, 16, 9, 8, 9, 6, 12
      |11, 12, 12, 10, 7, 7, 5, 8, 10, 8, 10, 7, 15, 4, 11, 9, 16, 6, 10, 0, 12, 1, 4, 10, 11, 10
      |9, 15, 4, 13, 15, 11, 15, 18, 6, 15, 19, 5, 9, 12, 15, 7, 4, 10, 16, 12, 0, 11, 8, 8, 11, 20
      |10, 11, 11, 9, 6, 6, 4, 7, 9, 7, 9, 6, 14, 3, 10, 8, 15, 5, 9, 1, 11, 0, 3, 9, 10, 9
      |7, 9, 12, 7, 9, 3, 7, 10, 12, 9, 12, 3, 13, 6, 13, 5, 12, 8, 8, 4, 8, 3, 0, 6, 9, 12
      |7, 7, 12, 5, 7, 9, 13, 15, 12, 7, 11, 3, 7, 10, 13, 5, 12, 8, 9, 10, 8, 9, 6, 0, 3, 13
      |10, 4, 15, 2, 4, 6, 13, 12, 13, 4, 8, 6, 4, 7, 14, 8, 9, 9, 6, 11, 11, 10, 9, 3, 0, 10
      |19, 6, 20, 8, 14, 12, 5, 2, 18, 10, 2, 15, 14, 12, 19, 17, 19, 14, 12, 10, 20, 9, 12, 13, 10, 0
      |];

% Initial object distribution
S_init = [0, 0, 0, 1, 0, 0, 1, 0, 0, 1, 0, 0, 0, 0, 0, 1, 0, 0, 0, 0, 0, 0, 0, 0, 1, 1];

% Target nodes (1 if target, 0 otherwise)
T = [0, 0, 0, 0, 0, 0, 0, 0, 0, 0, 1, 0, 1, 1, 0, 0, 0, 0, 0, 1, 0, 0, 0, 0, 0, 0];

% Initial truck position (1-based indexing)
u = 17;

% --- DEBUG TRACE ---
% --- GENERATION TRACE (Backwards from Target) ---
% Initial distribution (all on targets): [0, 0, 0, 0, 0, 0, 0, 0, 0, 0, 2, 0, 2, 1, 0, 0, 0, 0, 0, 1, 0, 0, 0, 0, 0, 0]
% Step 1: Selected target node 11 (has 2 objects)
% Step 1: Moved object 11 -> 7
% Step 1: Distribution: [0, 0, 0, 0, 0, 0, 1, 0, 0, 0, 1, 0, 2, 1, 0, 0, 0, 0, 0, 1, 0, 0, 0, 0, 0, 0]
% Step 2: Selected target node 20 (has 1 objects)
% Step 2: Moved object 20 -> 22
% Step 2: Distribution: [0, 0, 0, 0, 0, 0, 1, 0, 0, 0, 1, 0, 2, 1, 0, 0, 0, 0, 0, 0, 0, 1, 0, 0, 0, 0]
% Step 3: Selected target node 11 (has 1 objects)
% Step 3: Moved object 11 -> 2
% Step 3: Distribution: [0, 1, 0, 0, 0, 0, 1, 0, 0, 0, 0, 0, 2, 1, 0, 0, 0, 0, 0, 0, 0, 1, 0, 0, 0, 0]
% Step 4: Selected target node 13 (has 2 objects)
% Step 4: Moved object 13 -> 25
% Step 4: Distribution: [0, 1, 0, 0, 0, 0, 1, 0, 0, 0, 0, 0, 1, 1, 0, 0, 0, 0, 0, 0, 0, 1, 0, 0, 1, 0]
% Step 5: Selected target node 14 (has 1 objects)
% Step 5: Moved object 14 -> 10
% Step 5: Distribution: [0, 1, 0, 0, 0, 0, 1, 0, 0, 1, 0, 0, 1, 0, 0, 0, 0, 0, 0, 0, 0, 1, 0, 0, 1, 0]
% Step 6: Selected target node 13 (has 1 objects)
% Step 6: Moved object 13 -> 17
% Step 6: Distribution: [0, 1, 0, 0, 0, 0, 1, 0, 0, 1, 0, 0, 0, 0, 0, 0, 1, 0, 0, 0, 0, 1, 0, 0, 1, 0]
% Step 7: Selected non-target node 7 (has 1 objects)
% Step 7: Avoiding backtrack to node 11
% Step 7: Moved object 7 -> 8
% Step 7: Distribution: [0, 1, 0, 0, 0, 0, 0, 1, 0, 1, 0, 0, 0, 0, 0, 0, 1, 0, 0, 0, 0, 1, 0, 0, 1, 0]
% Step 8: Selected non-target node 2 (has 1 objects)
% Step 8: Avoiding backtrack to node 11
% Step 8: Moved object 2 -> 4
% Step 8: Distribution: [0, 0, 0, 1, 0, 0, 0, 1, 0, 1, 0, 0, 0, 0, 0, 0, 1, 0, 0, 0, 0, 1, 0, 0, 1, 0]
% Step 9: Selected non-target node 17 (has 1 objects)
% Step 9: Avoiding backtrack to node 13
% Step 9: Moved object 17 -> 21
% Step 9: Distribution: [0, 0, 0, 1, 0, 0, 0, 1, 0, 1, 0, 0, 0, 0, 0, 0, 0, 0, 0, 0, 1, 1, 0, 0, 1, 0]
% Step 10: Selected non-target node 22 (has 1 objects)
% Step 10: Avoiding backtrack to node 20
% Step 10: Moved object 22 -> 7
% Step 10: Distribution: [0, 0, 0, 1, 0, 0, 1, 1, 0, 1, 0, 0, 0, 0, 0, 0, 0, 0, 0, 0, 1, 0, 0, 0, 1, 0]
% Step 11: Selected non-target node 21 (has 1 objects)
% Step 11: Avoiding backtrack to node 17
% Step 11: Moved object 21 -> 12
% Step 11: Distribution: [0, 0, 0, 1, 0, 0, 1, 1, 0, 1, 0, 1, 0, 0, 0, 0, 0, 0, 0, 0, 0, 0, 0, 0, 1, 0]
% Step 12: Selected non-target node 10 (has 1 objects)
% Step 12: Avoiding backtrack to node 14
% Step 12: Moved object 10 -> 19
% Step 12: Distribution: [0, 0, 0, 1, 0, 0, 1, 1, 0, 0, 0, 1, 0, 0, 0, 0, 0, 0, 1, 0, 0, 0, 0, 0, 1, 0]
% Step 13: Selected non-target node 19 (has 1 objects)
% Step 13: Avoiding backtrack to node 10
% Step 13: Moved object 19 -> 6
% Step 13: Distribution: [0, 0, 0, 1, 0, 1, 1, 1, 0, 0, 0, 1, 0, 0, 0, 0, 0, 0, 0, 0, 0, 0, 0, 0, 1, 0]
% Step 14: Selected non-target node 8 (has 1 objects)
% Step 14: Avoiding backtrack to node 7
% Step 14: Moved object 8 -> 26
% Step 14: Distribution: [0, 0, 0, 1, 0, 1, 1, 0, 0, 0, 0, 1, 0, 0, 0, 0, 0, 0, 0, 0, 0, 0, 0, 0, 1, 1]
% Step 15: Selected non-target node 12 (has 1 objects)
% Step 15: Avoiding backtrack to node 21
% Step 15: Moved object 12 -> 16
% Step 15: Distribution: [0, 0, 0, 1, 0, 1, 1, 0, 0, 0, 0, 0, 0, 0, 0, 1, 0, 0, 0, 0, 0, 0, 0, 0, 1, 1]
% Step 16: Selected non-target node 6 (has 1 objects)
% Step 16: Avoiding backtrack to node 19
% Step 16: Moved object 6 -> 4
% Step 16: Distribution: [0, 0, 0, 2, 0, 0, 1, 0, 0, 0, 0, 0, 0, 0, 0, 1, 0, 0, 0, 0, 0, 0, 0, 0, 1, 1]
% Step 17: Selected non-target node 4 (has 2 objects)
% Step 17: Avoiding backtrack to node 6
% Step 17: Moved object 4 -> 10
% Step 17: Distribution: [0, 0, 0, 1, 0, 0, 1, 0, 0, 1, 0, 0, 0, 0, 0, 1, 0, 0, 0, 0, 0, 0, 0, 0, 1, 1]
% Truck starting position: 17
