% instance_n22_c3_k17_i79.dzn
% Generated instance for the Trucks problem
% N=22, h=5, k=17

% Number of nodes
N = 22;

% Number of objects
h = 5;

% Maximum plan length
%k = 17;

% Adjacency matrix (0-based internal, will be converted to 1-based)
Adj = [|0, 1, 0, 0, 1, 0, 0, 0, 0, 1, 0, 0, 1, 0, 1, 0, 1, 0, 1, 1, 0, 0
      |1, 0, 0, 0, 0, 0, 0, 0, 0, 0, 0, 0, 0, 0, 0, 0, 0, 0, 0, 0, 0, 1
      |0, 0, 0, 0, 0, 0, 0, 0, 1, 0, 0, 0, 0, 0, 0, 0, 0, 0, 0, 0, 0, 0
      |0, 0, 0, 0, 0, 0, 0, 0, 0, 0, 0, 0, 1, 0, 0, 0, 0, 0, 0, 0, 1, 0
      |1, 0, 0, 0, 0, 0, 0, 0, 0, 1, 0, 0, 0, 0, 0, 0, 0, 0, 0, 0, 0, 0
      |0, 0, 0, 0, 0, 0, 0, 0, 0, 1, 0, 0, 0, 0, 0, 0, 0, 1, 1, 0, 0, 0
      |0, 0, 0, 0, 0, 0, 0, 0, 0, 0, 0, 1, 0, 0, 0, 0, 0, 0, 0, 0, 0, 0
      |0, 0, 0, 0, 0, 0, 0, 0, 0, 1, 0, 1, 0, 0, 0, 0, 0, 0, 0, 0, 0, 0
      |0, 0, 1, 0, 0, 0, 0, 0, 0, 0, 0, 0, 0, 0, 0, 0, 1, 0, 0, 0, 0, 0
      |1, 0, 0, 0, 1, 1, 0, 1, 0, 0, 0, 0, 0, 0, 0, 0, 0, 0, 0, 0, 0, 0
      |0, 0, 0, 0, 0, 0, 0, 0, 0, 0, 0, 0, 0, 0, 0, 0, 1, 0, 1, 0, 0, 0
      |0, 0, 0, 0, 0, 0, 1, 1, 0, 0, 0, 0, 0, 0, 0, 0, 0, 0, 0, 1, 0, 0
      |1, 0, 0, 1, 0, 0, 0, 0, 0, 0, 0, 0, 0, 0, 0, 0, 0, 0, 0, 0, 0, 0
      |0, 0, 0, 0, 0, 0, 0, 0, 0, 0, 0, 0, 0, 0, 0, 0, 0, 0, 0, 1, 0, 0
      |1, 0, 0, 0, 0, 0, 0, 0, 0, 0, 0, 0, 0, 0, 0, 0, 0, 0, 0, 0, 0, 0
      |0, 0, 0, 0, 0, 0, 0, 0, 0, 0, 0, 0, 0, 0, 0, 0, 1, 0, 0, 0, 0, 0
      |1, 0, 0, 0, 0, 0, 0, 0, 1, 0, 1, 0, 0, 0, 0, 1, 0, 0, 0, 0, 0, 0
      |0, 0, 0, 0, 0, 1, 0, 0, 0, 0, 0, 0, 0, 0, 0, 0, 0, 0, 0, 0, 1, 0
      |1, 0, 0, 0, 0, 1, 0, 0, 0, 0, 1, 0, 0, 0, 0, 0, 0, 0, 0, 0, 0, 1
      |1, 0, 0, 0, 0, 0, 0, 0, 0, 0, 0, 1, 0, 1, 0, 0, 0, 0, 0, 0, 0, 0
      |0, 0, 0, 1, 0, 0, 0, 0, 0, 0, 0, 0, 0, 0, 0, 0, 0, 1, 0, 0, 0, 1
      |0, 1, 0, 0, 0, 0, 0, 0, 0, 0, 0, 0, 0, 0, 0, 0, 0, 0, 1, 0, 1, 0
      |];

% Weights matrix (edge weights)
% Weights = [|0, 3, 0, 0, 5, 0, 0, 0, 0, 3, 0, 0, 2, 0, 5, 0, 3, 0, 2, 4, 0, 0
%           |3, 0, 0, 0, 0, 0, 0, 0, 0, 0, 0, 0, 0, 0, 0, 0, 0, 0, 0, 0, 0, 2
%           |0, 0, 0, 0, 0, 0, 0, 0, 1, 0, 0, 0, 0, 0, 0, 0, 0, 0, 0, 0, 0, 0
%           |0, 0, 0, 0, 0, 0, 0, 0, 0, 0, 0, 0, 4, 0, 0, 0, 0, 0, 0, 0, 4, 0
%           |5, 0, 0, 0, 0, 0, 0, 0, 0, 3, 0, 0, 0, 0, 0, 0, 0, 0, 0, 0, 0, 0
%           |0, 0, 0, 0, 0, 0, 0, 0, 0, 3, 0, 0, 0, 0, 0, 0, 0, 3, 1, 0, 0, 0
%           |0, 0, 0, 0, 0, 0, 0, 0, 0, 0, 0, 5, 0, 0, 0, 0, 0, 0, 0, 0, 0, 0
%           |0, 0, 0, 0, 0, 0, 0, 0, 0, 4, 0, 3, 0, 0, 0, 0, 0, 0, 0, 0, 0, 0
%           |0, 0, 1, 0, 0, 0, 0, 0, 0, 0, 0, 0, 0, 0, 0, 0, 2, 0, 0, 0, 0, 0
%           |3, 0, 0, 0, 3, 3, 0, 4, 0, 0, 0, 0, 0, 0, 0, 0, 0, 0, 0, 0, 0, 0
%           |0, 0, 0, 0, 0, 0, 0, 0, 0, 0, 0, 0, 0, 0, 0, 0, 1, 0, 3, 0, 0, 0
%           |0, 0, 0, 0, 0, 0, 5, 3, 0, 0, 0, 0, 0, 0, 0, 0, 0, 0, 0, 3, 0, 0
%           |2, 0, 0, 4, 0, 0, 0, 0, 0, 0, 0, 0, 0, 0, 0, 0, 0, 0, 0, 0, 0, 0
%           |0, 0, 0, 0, 0, 0, 0, 0, 0, 0, 0, 0, 0, 0, 0, 0, 0, 0, 0, 2, 0, 0
%           |5, 0, 0, 0, 0, 0, 0, 0, 0, 0, 0, 0, 0, 0, 0, 0, 0, 0, 0, 0, 0, 0
%           |0, 0, 0, 0, 0, 0, 0, 0, 0, 0, 0, 0, 0, 0, 0, 0, 4, 0, 0, 0, 0, 0
%           |3, 0, 0, 0, 0, 0, 0, 0, 2, 0, 1, 0, 0, 0, 0, 4, 0, 0, 0, 0, 0, 0
%           |0, 0, 0, 0, 0, 3, 0, 0, 0, 0, 0, 0, 0, 0, 0, 0, 0, 0, 0, 0, 2, 0
%           |2, 0, 0, 0, 0, 1, 0, 0, 0, 0, 3, 0, 0, 0, 0, 0, 0, 0, 0, 0, 0, 2
%           |4, 0, 0, 0, 0, 0, 0, 0, 0, 0, 0, 3, 0, 2, 0, 0, 0, 0, 0, 0, 0, 0
%           |0, 0, 0, 4, 0, 0, 0, 0, 0, 0, 0, 0, 0, 0, 0, 0, 0, 2, 0, 0, 0, 2
%           |0, 2, 0, 0, 0, 0, 0, 0, 0, 0, 0, 0, 0, 0, 0, 0, 0, 0, 2, 0, 2, 0
%           |];

% Distance matrix
Dist = [|0, 3, 6, 6, 5, 3, 12, 7, 5, 3, 4, 7, 2, 6, 5, 7, 3, 6, 2, 4, 6, 4
      |3, 0, 9, 8, 8, 5, 15, 10, 8, 6, 7, 10, 5, 9, 8, 10, 6, 6, 4, 7, 4, 2
      |6, 9, 0, 12, 11, 8, 18, 13, 1, 9, 4, 13, 8, 12, 11, 7, 3, 11, 7, 10, 11, 9
      |6, 8, 12, 0, 11, 9, 18, 13, 11, 9, 10, 13, 4, 12, 11, 13, 9, 6, 8, 10, 4, 6
      |5, 8, 11, 11, 0, 6, 15, 7, 10, 3, 9, 10, 7, 11, 10, 12, 8, 9, 7, 9, 11, 9
      |3, 5, 8, 9, 6, 0, 15, 7, 7, 3, 4, 10, 5, 9, 8, 9, 5, 3, 1, 7, 5, 3
      |12, 15, 18, 18, 15, 15, 0, 8, 17, 12, 16, 5, 14, 10, 17, 19, 15, 18, 14, 8, 18, 16
      |7, 10, 13, 13, 7, 7, 8, 0, 12, 4, 11, 3, 9, 8, 12, 14, 10, 10, 8, 6, 12, 10
      |5, 8, 1, 11, 10, 7, 17, 12, 0, 8, 3, 12, 7, 11, 10, 6, 2, 10, 6, 9, 10, 8
      |3, 6, 9, 9, 3, 3, 12, 4, 8, 0, 7, 7, 5, 9, 8, 10, 6, 6, 4, 7, 8, 6
      |4, 7, 4, 10, 9, 4, 16, 11, 3, 7, 0, 11, 6, 10, 9, 5, 1, 7, 3, 8, 7, 5
      |7, 10, 13, 13, 10, 10, 5, 3, 12, 7, 11, 0, 9, 5, 12, 14, 10, 13, 9, 3, 13, 11
      |2, 5, 8, 4, 7, 5, 14, 9, 7, 5, 6, 9, 0, 8, 7, 9, 5, 8, 4, 6, 8, 6
      |6, 9, 12, 12, 11, 9, 10, 8, 11, 9, 10, 5, 8, 0, 11, 13, 9, 12, 8, 2, 12, 10
      |5, 8, 11, 11, 10, 8, 17, 12, 10, 8, 9, 12, 7, 11, 0, 12, 8, 11, 7, 9, 11, 9
      |7, 10, 7, 13, 12, 9, 19, 14, 6, 10, 5, 14, 9, 13, 12, 0, 4, 12, 8, 11, 12, 10
      |3, 6, 3, 9, 8, 5, 15, 10, 2, 6, 1, 10, 5, 9, 8, 4, 0, 8, 4, 7, 8, 6
      |6, 6, 11, 6, 9, 3, 18, 10, 10, 6, 7, 13, 8, 12, 11, 12, 8, 0, 4, 10, 2, 4
      |2, 4, 7, 8, 7, 1, 14, 8, 6, 4, 3, 9, 4, 8, 7, 8, 4, 4, 0, 6, 4, 2
      |4, 7, 10, 10, 9, 7, 8, 6, 9, 7, 8, 3, 6, 2, 9, 11, 7, 10, 6, 0, 10, 8
      |6, 4, 11, 4, 11, 5, 18, 12, 10, 8, 7, 13, 8, 12, 11, 12, 8, 2, 4, 10, 0, 2
      |4, 2, 9, 6, 9, 3, 16, 10, 8, 6, 5, 11, 6, 10, 9, 10, 6, 4, 2, 8, 2, 0
      |];

% Initial object distribution
S_init = [0, 0, 0, 0, 0, 2, 0, 0, 0, 0, 0, 0, 0, 0, 2, 0, 0, 0, 1, 0, 0, 0];

% Target nodes (1 if target, 0 otherwise)
T = [1, 0, 0, 0, 0, 0, 0, 0, 0, 0, 0, 0, 0, 1, 1, 0, 0, 0, 0, 0, 1, 0];

% Initial truck position (1-based indexing)
u = 15;

% --- DEBUG TRACE ---
% --- GENERATION TRACE (Backwards from Target) ---
% Initial distribution (all on targets): [1, 0, 0, 0, 0, 0, 0, 0, 0, 0, 0, 0, 0, 1, 2, 0, 0, 0, 0, 0, 1, 0]
% Step 1: Selected target node 21 (has 1 objects)
% Step 1: Moved object 21 -> 22
% Step 1: Distribution: [1, 0, 0, 0, 0, 0, 0, 0, 0, 0, 0, 0, 0, 1, 2, 0, 0, 0, 0, 0, 0, 1]
% Step 2: Selected target node 15 (has 2 objects)
% Step 2: Selected target node 1 (has 1 objects)
% Step 2: Moved object 1 -> 10
% Step 2: Distribution: [0, 0, 0, 0, 0, 0, 0, 0, 0, 1, 0, 0, 0, 1, 2, 0, 0, 0, 0, 0, 0, 1]
% Step 3: Selected target node 14 (has 1 objects)
% Step 3: Moved object 14 -> 20
% Step 3: Distribution: [0, 0, 0, 0, 0, 0, 0, 0, 0, 1, 0, 0, 0, 0, 2, 0, 0, 0, 0, 1, 0, 1]
% Step 4: Selected target node 15 (has 2 objects)
% Step 4: Selected non-target node 20 (has 1 objects)
% Step 4: Avoiding backtrack to node 14
% Step 4: Moved object 20 -> 12
% Step 4: Distribution: [0, 0, 0, 0, 0, 0, 0, 0, 0, 1, 0, 1, 0, 0, 2, 0, 0, 0, 0, 0, 0, 1]
% Step 5: Selected target node 15 (has 2 objects)
% Step 5: Selected non-target node 10 (has 1 objects)
% Step 5: Avoiding backtrack to node 1
% Step 5: Moved object 10 -> 5
% Step 5: Distribution: [0, 0, 0, 0, 1, 0, 0, 0, 0, 0, 0, 1, 0, 0, 2, 0, 0, 0, 0, 0, 0, 1]
% Step 6: Selected target node 15 (has 2 objects)
% Step 6: Selected non-target node 12 (has 1 objects)
% Step 6: Avoiding backtrack to node 20
% Step 6: Moved object 12 -> 8
% Step 6: Distribution: [0, 0, 0, 0, 1, 0, 0, 1, 0, 0, 0, 0, 0, 0, 2, 0, 0, 0, 0, 0, 0, 1]
% Step 7: Selected target node 15 (has 2 objects)
% Step 7: Selected non-target node 22 (has 1 objects)
% Step 7: Avoiding backtrack to node 21
% Step 7: Moved object 22 -> 2
% Step 7: Distribution: [0, 1, 0, 0, 1, 0, 0, 1, 0, 0, 0, 0, 0, 0, 2, 0, 0, 0, 0, 0, 0, 0]
% Step 8: Selected target node 15 (has 2 objects)
% Step 8: Selected non-target node 2 (has 1 objects)
% Step 8: Moved object 2 -> 22
% Step 8: Distribution: [0, 0, 0, 0, 1, 0, 0, 1, 0, 0, 0, 0, 0, 0, 2, 0, 0, 0, 0, 0, 0, 1]
% Step 9: Selected target node 15 (has 2 objects)
% Step 9: Selected non-target node 8 (has 1 objects)
% Step 9: Avoiding backtrack to node 12
% Step 9: Moved object 8 -> 10
% Step 9: Distribution: [0, 0, 0, 0, 1, 0, 0, 0, 0, 1, 0, 0, 0, 0, 2, 0, 0, 0, 0, 0, 0, 1]
% Step 10: Selected target node 15 (has 2 objects)
% Step 10: Selected non-target node 10 (has 1 objects)
% Step 10: Avoiding backtrack to node 8
% Step 10: Moved object 10 -> 6
% Step 10: Distribution: [0, 0, 0, 0, 1, 1, 0, 0, 0, 0, 0, 0, 0, 0, 2, 0, 0, 0, 0, 0, 0, 1]
% Step 11: Selected target node 15 (has 2 objects)
% Step 11: Selected non-target node 22 (has 1 objects)
% Step 11: Avoiding backtrack to node 2
% Step 11: Moved object 22 -> 19
% Step 11: Distribution: [0, 0, 0, 0, 1, 1, 0, 0, 0, 0, 0, 0, 0, 0, 2, 0, 0, 0, 1, 0, 0, 0]
% Step 12: Selected target node 15 (has 2 objects)
% Step 12: Selected non-target node 19 (has 1 objects)
% Step 12: Avoiding backtrack to node 22
% Step 12: Moved object 19 -> 6
% Step 12: Distribution: [0, 0, 0, 0, 1, 2, 0, 0, 0, 0, 0, 0, 0, 0, 2, 0, 0, 0, 0, 0, 0, 0]
% Step 13: Selected target node 15 (has 2 objects)
% Step 13: Selected non-target node 5 (has 1 objects)
% Step 13: Moved object 5 -> 10
% Step 13: Distribution: [0, 0, 0, 0, 0, 2, 0, 0, 0, 1, 0, 0, 0, 0, 2, 0, 0, 0, 0, 0, 0, 0]
% Step 14: Selected target node 15 (has 2 objects)
% Step 14: Selected non-target node 10 (has 1 objects)
% Step 14: Avoiding backtrack to node 5
% Step 14: Moved object 10 -> 6
% Step 14: Distribution: [0, 0, 0, 0, 0, 3, 0, 0, 0, 0, 0, 0, 0, 0, 2, 0, 0, 0, 0, 0, 0, 0]
% Step 15: Selected target node 15 (has 2 objects)
% Step 15: Selected non-target node 6 (has 3 objects)
% Step 15: Avoiding backtrack to node 10
% Step 15: Moved object 6 -> 18
% Step 15: Distribution: [0, 0, 0, 0, 0, 2, 0, 0, 0, 0, 0, 0, 0, 0, 2, 0, 0, 1, 0, 0, 0, 0]
% Step 16: Selected target node 15 (has 2 objects)
% Step 16: Selected non-target node 18 (has 1 objects)
% Step 16: Moved object 18 -> 6
% Step 16: Distribution: [0, 0, 0, 0, 0, 3, 0, 0, 0, 0, 0, 0, 0, 0, 2, 0, 0, 0, 0, 0, 0, 0]
% Step 17: Selected target node 15 (has 2 objects)
% Step 17: Selected non-target node 6 (has 3 objects)
% Step 17: Avoiding backtrack to node 18
% Step 17: Moved object 6 -> 19
% Step 17: Distribution: [0, 0, 0, 0, 0, 2, 0, 0, 0, 0, 0, 0, 0, 0, 2, 0, 0, 0, 1, 0, 0, 0]
% Truck starting position: 15
