% instance_n22_c3_k11_i77.dzn
% Generated instance for the Trucks problem
% N=22, h=5, k=11

% Number of nodes
N = 22;

% Number of objects
h = 5;

% Maximum plan length
%k = 11;

% Adjacency matrix (0-based internal, will be converted to 1-based)
Adj = [|0, 0, 0, 0, 0, 0, 0, 0, 1, 1, 0, 0, 0, 0, 0, 0, 0, 0, 1, 0, 1, 0
      |0, 0, 1, 0, 1, 0, 0, 0, 0, 0, 0, 1, 0, 0, 0, 1, 0, 0, 0, 0, 0, 0
      |0, 1, 0, 0, 0, 0, 0, 1, 0, 0, 0, 0, 0, 0, 0, 0, 0, 0, 0, 0, 0, 0
      |0, 0, 0, 0, 0, 1, 0, 0, 0, 0, 0, 0, 1, 0, 0, 0, 0, 0, 0, 0, 0, 1
      |0, 1, 0, 0, 0, 0, 0, 0, 0, 0, 0, 1, 0, 0, 0, 0, 0, 1, 0, 0, 0, 0
      |0, 0, 0, 1, 0, 0, 0, 0, 0, 0, 0, 0, 0, 0, 0, 0, 1, 0, 0, 0, 0, 0
      |0, 0, 0, 0, 0, 0, 0, 0, 1, 0, 0, 0, 0, 0, 0, 0, 0, 0, 0, 0, 0, 0
      |0, 0, 1, 0, 0, 0, 0, 0, 0, 0, 0, 0, 0, 0, 0, 0, 0, 0, 1, 0, 0, 0
      |1, 0, 0, 0, 0, 0, 1, 0, 0, 0, 0, 0, 1, 0, 0, 1, 0, 0, 0, 1, 0, 1
      |1, 0, 0, 0, 0, 0, 0, 0, 0, 0, 0, 0, 0, 1, 1, 0, 0, 0, 0, 1, 0, 0
      |0, 0, 0, 0, 0, 0, 0, 0, 0, 0, 0, 0, 0, 0, 0, 1, 0, 0, 0, 1, 0, 0
      |0, 1, 0, 0, 1, 0, 0, 0, 0, 0, 0, 0, 0, 0, 0, 0, 0, 0, 0, 0, 0, 0
      |0, 0, 0, 1, 0, 0, 0, 0, 1, 0, 0, 0, 0, 0, 0, 0, 0, 0, 0, 0, 1, 0
      |0, 0, 0, 0, 0, 0, 0, 0, 0, 1, 0, 0, 0, 0, 0, 0, 0, 0, 0, 0, 0, 0
      |0, 0, 0, 0, 0, 0, 0, 0, 0, 1, 0, 0, 0, 0, 0, 0, 0, 0, 0, 0, 0, 0
      |0, 1, 0, 0, 0, 0, 0, 0, 1, 0, 1, 0, 0, 0, 0, 0, 1, 0, 0, 0, 0, 0
      |0, 0, 0, 0, 0, 1, 0, 0, 0, 0, 0, 0, 0, 0, 0, 1, 0, 0, 0, 0, 0, 0
      |0, 0, 0, 0, 1, 0, 0, 0, 0, 0, 0, 0, 0, 0, 0, 0, 0, 0, 0, 0, 0, 0
      |1, 0, 0, 0, 0, 0, 0, 1, 0, 0, 0, 0, 0, 0, 0, 0, 0, 0, 0, 0, 0, 0
      |0, 0, 0, 0, 0, 0, 0, 0, 1, 1, 1, 0, 0, 0, 0, 0, 0, 0, 0, 0, 0, 0
      |1, 0, 0, 0, 0, 0, 0, 0, 0, 0, 0, 0, 1, 0, 0, 0, 0, 0, 0, 0, 0, 0
      |0, 0, 0, 1, 0, 0, 0, 0, 1, 0, 0, 0, 0, 0, 0, 0, 0, 0, 0, 0, 0, 0
      |];

% Weights matrix (edge weights)
% Weights = [|0, 0, 0, 0, 0, 0, 0, 0, 2, 3, 0, 0, 0, 0, 0, 0, 0, 0, 4, 0, 5, 0
%           |0, 0, 2, 0, 2, 0, 0, 0, 0, 0, 0, 1, 0, 0, 0, 1, 0, 0, 0, 0, 0, 0
%           |0, 2, 0, 0, 0, 0, 0, 5, 0, 0, 0, 0, 0, 0, 0, 0, 0, 0, 0, 0, 0, 0
%           |0, 0, 0, 0, 0, 2, 0, 0, 0, 0, 0, 0, 4, 0, 0, 0, 0, 0, 0, 0, 0, 3
%           |0, 2, 0, 0, 0, 0, 0, 0, 0, 0, 0, 1, 0, 0, 0, 0, 0, 4, 0, 0, 0, 0
%           |0, 0, 0, 2, 0, 0, 0, 0, 0, 0, 0, 0, 0, 0, 0, 0, 4, 0, 0, 0, 0, 0
%           |0, 0, 0, 0, 0, 0, 0, 0, 2, 0, 0, 0, 0, 0, 0, 0, 0, 0, 0, 0, 0, 0
%           |0, 0, 5, 0, 0, 0, 0, 0, 0, 0, 0, 0, 0, 0, 0, 0, 0, 0, 5, 0, 0, 0
%           |2, 0, 0, 0, 0, 0, 2, 0, 0, 0, 0, 0, 3, 0, 0, 2, 0, 0, 0, 4, 0, 1
%           |3, 0, 0, 0, 0, 0, 0, 0, 0, 0, 0, 0, 0, 4, 2, 0, 0, 0, 0, 5, 0, 0
%           |0, 0, 0, 0, 0, 0, 0, 0, 0, 0, 0, 0, 0, 0, 0, 3, 0, 0, 0, 4, 0, 0
%           |0, 1, 0, 0, 1, 0, 0, 0, 0, 0, 0, 0, 0, 0, 0, 0, 0, 0, 0, 0, 0, 0
%           |0, 0, 0, 4, 0, 0, 0, 0, 3, 0, 0, 0, 0, 0, 0, 0, 0, 0, 0, 0, 1, 0
%           |0, 0, 0, 0, 0, 0, 0, 0, 0, 4, 0, 0, 0, 0, 0, 0, 0, 0, 0, 0, 0, 0
%           |0, 0, 0, 0, 0, 0, 0, 0, 0, 2, 0, 0, 0, 0, 0, 0, 0, 0, 0, 0, 0, 0
%           |0, 1, 0, 0, 0, 0, 0, 0, 2, 0, 3, 0, 0, 0, 0, 0, 1, 0, 0, 0, 0, 0
%           |0, 0, 0, 0, 0, 4, 0, 0, 0, 0, 0, 0, 0, 0, 0, 1, 0, 0, 0, 0, 0, 0
%           |0, 0, 0, 0, 4, 0, 0, 0, 0, 0, 0, 0, 0, 0, 0, 0, 0, 0, 0, 0, 0, 0
%           |4, 0, 0, 0, 0, 0, 0, 5, 0, 0, 0, 0, 0, 0, 0, 0, 0, 0, 0, 0, 0, 0
%           |0, 0, 0, 0, 0, 0, 0, 0, 4, 5, 4, 0, 0, 0, 0, 0, 0, 0, 0, 0, 0, 0
%           |5, 0, 0, 0, 0, 0, 0, 0, 0, 0, 0, 0, 1, 0, 0, 0, 0, 0, 0, 0, 0, 0
%           |0, 0, 0, 3, 0, 0, 0, 0, 1, 0, 0, 0, 0, 0, 0, 0, 0, 0, 0, 0, 0, 0
%           |];

% Distance matrix
Dist = [|0, 5, 7, 6, 7, 8, 4, 9, 2, 3, 7, 6, 5, 7, 5, 4, 5, 11, 4, 6, 5, 3
      |5, 0, 2, 7, 2, 6, 5, 7, 3, 8, 4, 1, 6, 12, 10, 1, 2, 6, 9, 7, 7, 4
      |7, 2, 0, 9, 4, 8, 7, 5, 5, 10, 6, 3, 8, 14, 12, 3, 4, 8, 10, 9, 9, 6
      |6, 7, 9, 0, 9, 2, 6, 14, 4, 9, 9, 8, 4, 13, 11, 6, 6, 13, 10, 8, 5, 3
      |7, 2, 4, 9, 0, 8, 7, 9, 5, 10, 6, 1, 8, 14, 12, 3, 4, 4, 11, 9, 9, 6
      |8, 6, 8, 2, 8, 0, 8, 13, 6, 11, 8, 7, 6, 15, 13, 5, 4, 12, 12, 10, 7, 5
      |4, 5, 7, 6, 7, 8, 0, 12, 2, 7, 7, 6, 5, 11, 9, 4, 5, 11, 8, 6, 6, 3
      |9, 7, 5, 14, 9, 13, 12, 0, 10, 12, 11, 8, 13, 16, 14, 8, 9, 13, 5, 14, 14, 11
      |2, 3, 5, 4, 5, 6, 2, 10, 0, 5, 5, 4, 3, 9, 7, 2, 3, 9, 6, 4, 4, 1
      |3, 8, 10, 9, 10, 11, 7, 12, 5, 0, 9, 9, 8, 4, 2, 7, 8, 14, 7, 5, 8, 6
      |7, 4, 6, 9, 6, 8, 7, 11, 5, 9, 0, 5, 8, 13, 11, 3, 4, 10, 11, 4, 9, 6
      |6, 1, 3, 8, 1, 7, 6, 8, 4, 9, 5, 0, 7, 13, 11, 2, 3, 5, 10, 8, 8, 5
      |5, 6, 8, 4, 8, 6, 5, 13, 3, 8, 8, 7, 0, 12, 10, 5, 6, 12, 9, 7, 1, 4
      |7, 12, 14, 13, 14, 15, 11, 16, 9, 4, 13, 13, 12, 0, 6, 11, 12, 18, 11, 9, 12, 10
      |5, 10, 12, 11, 12, 13, 9, 14, 7, 2, 11, 11, 10, 6, 0, 9, 10, 16, 9, 7, 10, 8
      |4, 1, 3, 6, 3, 5, 4, 8, 2, 7, 3, 2, 5, 11, 9, 0, 1, 7, 8, 6, 6, 3
      |5, 2, 4, 6, 4, 4, 5, 9, 3, 8, 4, 3, 6, 12, 10, 1, 0, 8, 9, 7, 7, 4
      |11, 6, 8, 13, 4, 12, 11, 13, 9, 14, 10, 5, 12, 18, 16, 7, 8, 0, 15, 13, 13, 10
      |4, 9, 10, 10, 11, 12, 8, 5, 6, 7, 11, 10, 9, 11, 9, 8, 9, 15, 0, 10, 9, 7
      |6, 7, 9, 8, 9, 10, 6, 14, 4, 5, 4, 8, 7, 9, 7, 6, 7, 13, 10, 0, 8, 5
      |5, 7, 9, 5, 9, 7, 6, 14, 4, 8, 9, 8, 1, 12, 10, 6, 7, 13, 9, 8, 0, 5
      |3, 4, 6, 3, 6, 5, 3, 11, 1, 6, 6, 5, 4, 10, 8, 3, 4, 10, 7, 5, 5, 0
      |];

% Initial object distribution
S_init = [0, 0, 0, 0, 0, 0, 1, 2, 0, 0, 0, 0, 0, 0, 0, 2, 0, 0, 0, 0, 0, 0];

% Target nodes (1 if target, 0 otherwise)
T = [0, 1, 0, 0, 0, 0, 0, 0, 1, 1, 0, 0, 1, 0, 0, 0, 0, 0, 0, 1, 0, 0];

% Initial truck position (1-based indexing)
u = 13;

% --- DEBUG TRACE ---
% --- GENERATION TRACE (Backwards from Target) ---
% Initial distribution (all on targets): [0, 1, 0, 0, 0, 0, 0, 0, 1, 1, 0, 0, 1, 0, 0, 0, 0, 0, 0, 1, 0, 0]
% Step 1: Selected target node 13 (has 1 objects)
% Step 1: Moved object 13 -> 21
% Step 1: Distribution: [0, 1, 0, 0, 0, 0, 0, 0, 1, 1, 0, 0, 0, 0, 0, 0, 0, 0, 0, 1, 1, 0]
% Step 2: Selected target node 20 (has 1 objects)
% Step 2: Moved object 20 -> 11
% Step 2: Distribution: [0, 1, 0, 0, 0, 0, 0, 0, 1, 1, 1, 0, 0, 0, 0, 0, 0, 0, 0, 0, 1, 0]
% Step 3: Selected target node 2 (has 1 objects)
% Step 3: Moved object 2 -> 16
% Step 3: Distribution: [0, 0, 0, 0, 0, 0, 0, 0, 1, 1, 1, 0, 0, 0, 0, 1, 0, 0, 0, 0, 1, 0]
% Step 4: Selected target node 10 (has 1 objects)
% Step 4: Moved object 10 -> 1
% Step 4: Distribution: [1, 0, 0, 0, 0, 0, 0, 0, 1, 0, 1, 0, 0, 0, 0, 1, 0, 0, 0, 0, 1, 0]
% Step 5: Selected target node 9 (has 1 objects)
% Step 5: Moved object 9 -> 7
% Step 5: Distribution: [1, 0, 0, 0, 0, 0, 1, 0, 0, 0, 1, 0, 0, 0, 0, 1, 0, 0, 0, 0, 1, 0]
% Step 6: Selected non-target node 7 (has 1 objects)
% Step 6: Selected non-target node 21 (has 1 objects)
% Step 6: Avoiding backtrack to node 13
% Step 6: Moved object 21 -> 1
% Step 6: Distribution: [2, 0, 0, 0, 0, 0, 1, 0, 0, 0, 1, 0, 0, 0, 0, 1, 0, 0, 0, 0, 0, 0]
% Step 7: Selected non-target node 11 (has 1 objects)
% Step 7: Avoiding backtrack to node 20
% Step 7: Moved object 11 -> 16
% Step 7: Distribution: [2, 0, 0, 0, 0, 0, 1, 0, 0, 0, 0, 0, 0, 0, 0, 2, 0, 0, 0, 0, 0, 0]
% Step 8: Selected non-target node 1 (has 2 objects)
% Step 8: Avoiding backtrack to node 21
% Step 8: Moved object 1 -> 19
% Step 8: Distribution: [1, 0, 0, 0, 0, 0, 1, 0, 0, 0, 0, 0, 0, 0, 0, 2, 0, 0, 1, 0, 0, 0]
% Step 9: Selected non-target node 19 (has 1 objects)
% Step 9: Avoiding backtrack to node 1
% Step 9: Moved object 19 -> 8
% Step 9: Distribution: [1, 0, 0, 0, 0, 0, 1, 1, 0, 0, 0, 0, 0, 0, 0, 2, 0, 0, 0, 0, 0, 0]
% Step 10: Selected non-target node 1 (has 1 objects)
% Step 10: Avoiding backtrack to node 21
% Step 10: Moved object 1 -> 19
% Step 10: Distribution: [0, 0, 0, 0, 0, 0, 1, 1, 0, 0, 0, 0, 0, 0, 0, 2, 0, 0, 1, 0, 0, 0]
% Step 11: Selected non-target node 19 (has 1 objects)
% Step 11: Avoiding backtrack to node 1
% Step 11: Moved object 19 -> 8
% Step 11: Distribution: [0, 0, 0, 0, 0, 0, 1, 2, 0, 0, 0, 0, 0, 0, 0, 2, 0, 0, 0, 0, 0, 0]
% Truck starting position: 13
