% instance_n26_c0_k14_i83.dzn
% Generated instance for the Trucks problem
% N=26, h=6, k=14

% Number of nodes
N = 26;

% Number of objects
h = 6;

% Maximum plan length
%k = 14;

% Adjacency matrix (0-based internal, will be converted to 1-based)
Adj = [|0, 0, 0, 0, 1, 0, 1, 0, 0, 0, 0, 0, 1, 0, 0, 0, 0, 0, 0, 0, 0, 1, 0, 0, 0, 0
      |0, 0, 0, 0, 0, 0, 0, 0, 0, 0, 0, 0, 1, 0, 0, 0, 0, 0, 0, 0, 0, 0, 0, 0, 0, 0
      |0, 0, 0, 0, 0, 0, 0, 0, 0, 1, 0, 0, 0, 0, 0, 0, 0, 0, 0, 0, 0, 0, 0, 0, 0, 0
      |0, 0, 0, 0, 0, 1, 0, 0, 0, 0, 0, 0, 1, 0, 0, 0, 0, 0, 0, 0, 0, 0, 1, 0, 0, 0
      |1, 0, 0, 0, 0, 0, 0, 0, 0, 0, 0, 1, 0, 0, 0, 0, 0, 1, 0, 0, 0, 0, 0, 0, 0, 0
      |0, 0, 0, 1, 0, 0, 0, 0, 0, 0, 0, 0, 0, 0, 0, 0, 0, 0, 0, 0, 0, 0, 0, 0, 0, 0
      |1, 0, 0, 0, 0, 0, 0, 0, 0, 0, 0, 0, 0, 0, 0, 0, 1, 0, 0, 0, 0, 0, 0, 0, 0, 0
      |0, 0, 0, 0, 0, 0, 0, 0, 0, 0, 1, 0, 0, 0, 0, 0, 0, 0, 0, 0, 0, 0, 0, 1, 0, 0
      |0, 0, 0, 0, 0, 0, 0, 0, 0, 0, 0, 0, 0, 0, 0, 0, 0, 0, 0, 1, 0, 0, 0, 0, 0, 0
      |0, 0, 1, 0, 0, 0, 0, 0, 0, 0, 0, 0, 0, 0, 1, 0, 1, 0, 0, 0, 0, 0, 0, 0, 0, 0
      |0, 0, 0, 0, 0, 0, 0, 1, 0, 0, 0, 0, 0, 0, 0, 0, 0, 0, 1, 0, 0, 0, 0, 0, 0, 0
      |0, 0, 0, 0, 1, 0, 0, 0, 0, 0, 0, 0, 0, 1, 0, 0, 0, 0, 0, 0, 0, 0, 0, 0, 1, 0
      |1, 1, 0, 1, 0, 0, 0, 0, 0, 0, 0, 0, 0, 0, 0, 1, 0, 0, 1, 0, 0, 0, 0, 1, 0, 0
      |0, 0, 0, 0, 0, 0, 0, 0, 0, 0, 0, 1, 0, 0, 1, 1, 0, 0, 0, 0, 1, 0, 0, 0, 0, 0
      |0, 0, 0, 0, 0, 0, 0, 0, 0, 1, 0, 0, 0, 1, 0, 0, 0, 1, 0, 0, 0, 0, 0, 0, 0, 0
      |0, 0, 0, 0, 0, 0, 0, 0, 0, 0, 0, 0, 1, 1, 0, 0, 0, 0, 0, 0, 1, 0, 0, 0, 0, 0
      |0, 0, 0, 0, 0, 0, 1, 0, 0, 1, 0, 0, 0, 0, 0, 0, 0, 1, 0, 1, 0, 0, 0, 0, 0, 0
      |0, 0, 0, 0, 1, 0, 0, 0, 0, 0, 0, 0, 0, 0, 1, 0, 1, 0, 0, 0, 0, 0, 1, 0, 1, 0
      |0, 0, 0, 0, 0, 0, 0, 0, 0, 0, 1, 0, 1, 0, 0, 0, 0, 0, 0, 0, 0, 0, 0, 0, 0, 0
      |0, 0, 0, 0, 0, 0, 0, 0, 1, 0, 0, 0, 0, 0, 0, 0, 1, 0, 0, 0, 0, 0, 0, 0, 0, 1
      |0, 0, 0, 0, 0, 0, 0, 0, 0, 0, 0, 0, 0, 1, 0, 1, 0, 0, 0, 0, 0, 0, 0, 0, 0, 0
      |1, 0, 0, 0, 0, 0, 0, 0, 0, 0, 0, 0, 0, 0, 0, 0, 0, 0, 0, 0, 0, 0, 0, 0, 0, 0
      |0, 0, 0, 1, 0, 0, 0, 0, 0, 0, 0, 0, 0, 0, 0, 0, 0, 1, 0, 0, 0, 0, 0, 0, 0, 0
      |0, 0, 0, 0, 0, 0, 0, 1, 0, 0, 0, 0, 1, 0, 0, 0, 0, 0, 0, 0, 0, 0, 0, 0, 0, 0
      |0, 0, 0, 0, 0, 0, 0, 0, 0, 0, 0, 1, 0, 0, 0, 0, 0, 1, 0, 0, 0, 0, 0, 0, 0, 0
      |0, 0, 0, 0, 0, 0, 0, 0, 0, 0, 0, 0, 0, 0, 0, 0, 0, 0, 0, 1, 0, 0, 0, 0, 0, 0
      |];

% Weights matrix (edge weights)
% Weights = [|0, 0, 0, 0, 3, 0, 1, 0, 0, 0, 0, 0, 5, 0, 0, 0, 0, 0, 0, 0, 0, 2, 0, 0, 0, 0
%           |0, 0, 0, 0, 0, 0, 0, 0, 0, 0, 0, 0, 2, 0, 0, 0, 0, 0, 0, 0, 0, 0, 0, 0, 0, 0
%           |0, 0, 0, 0, 0, 0, 0, 0, 0, 1, 0, 0, 0, 0, 0, 0, 0, 0, 0, 0, 0, 0, 0, 0, 0, 0
%           |0, 0, 0, 0, 0, 3, 0, 0, 0, 0, 0, 0, 3, 0, 0, 0, 0, 0, 0, 0, 0, 0, 2, 0, 0, 0
%           |3, 0, 0, 0, 0, 0, 0, 0, 0, 0, 0, 1, 0, 0, 0, 0, 0, 4, 0, 0, 0, 0, 0, 0, 0, 0
%           |0, 0, 0, 3, 0, 0, 0, 0, 0, 0, 0, 0, 0, 0, 0, 0, 0, 0, 0, 0, 0, 0, 0, 0, 0, 0
%           |1, 0, 0, 0, 0, 0, 0, 0, 0, 0, 0, 0, 0, 0, 0, 0, 4, 0, 0, 0, 0, 0, 0, 0, 0, 0
%           |0, 0, 0, 0, 0, 0, 0, 0, 0, 0, 1, 0, 0, 0, 0, 0, 0, 0, 0, 0, 0, 0, 0, 4, 0, 0
%           |0, 0, 0, 0, 0, 0, 0, 0, 0, 0, 0, 0, 0, 0, 0, 0, 0, 0, 0, 5, 0, 0, 0, 0, 0, 0
%           |0, 0, 1, 0, 0, 0, 0, 0, 0, 0, 0, 0, 0, 0, 5, 0, 2, 0, 0, 0, 0, 0, 0, 0, 0, 0
%           |0, 0, 0, 0, 0, 0, 0, 1, 0, 0, 0, 0, 0, 0, 0, 0, 0, 0, 2, 0, 0, 0, 0, 0, 0, 0
%           |0, 0, 0, 0, 1, 0, 0, 0, 0, 0, 0, 0, 0, 4, 0, 0, 0, 0, 0, 0, 0, 0, 0, 0, 3, 0
%           |5, 2, 0, 3, 0, 0, 0, 0, 0, 0, 0, 0, 0, 0, 0, 1, 0, 0, 3, 0, 0, 0, 0, 5, 0, 0
%           |0, 0, 0, 0, 0, 0, 0, 0, 0, 0, 0, 4, 0, 0, 2, 1, 0, 0, 0, 0, 5, 0, 0, 0, 0, 0
%           |0, 0, 0, 0, 0, 0, 0, 0, 0, 5, 0, 0, 0, 2, 0, 0, 0, 4, 0, 0, 0, 0, 0, 0, 0, 0
%           |0, 0, 0, 0, 0, 0, 0, 0, 0, 0, 0, 0, 1, 1, 0, 0, 0, 0, 0, 0, 2, 0, 0, 0, 0, 0
%           |0, 0, 0, 0, 0, 0, 4, 0, 0, 2, 0, 0, 0, 0, 0, 0, 0, 5, 0, 1, 0, 0, 0, 0, 0, 0
%           |0, 0, 0, 0, 4, 0, 0, 0, 0, 0, 0, 0, 0, 0, 4, 0, 5, 0, 0, 0, 0, 0, 1, 0, 4, 0
%           |0, 0, 0, 0, 0, 0, 0, 0, 0, 0, 2, 0, 3, 0, 0, 0, 0, 0, 0, 0, 0, 0, 0, 0, 0, 0
%           |0, 0, 0, 0, 0, 0, 0, 0, 5, 0, 0, 0, 0, 0, 0, 0, 1, 0, 0, 0, 0, 0, 0, 0, 0, 5
%           |0, 0, 0, 0, 0, 0, 0, 0, 0, 0, 0, 0, 0, 5, 0, 2, 0, 0, 0, 0, 0, 0, 0, 0, 0, 0
%           |2, 0, 0, 0, 0, 0, 0, 0, 0, 0, 0, 0, 0, 0, 0, 0, 0, 0, 0, 0, 0, 0, 0, 0, 0, 0
%           |0, 0, 0, 2, 0, 0, 0, 0, 0, 0, 0, 0, 0, 0, 0, 0, 0, 1, 0, 0, 0, 0, 0, 0, 0, 0
%           |0, 0, 0, 0, 0, 0, 0, 4, 0, 0, 0, 0, 5, 0, 0, 0, 0, 0, 0, 0, 0, 0, 0, 0, 0, 0
%           |0, 0, 0, 0, 0, 0, 0, 0, 0, 0, 0, 3, 0, 0, 0, 0, 0, 4, 0, 0, 0, 0, 0, 0, 0, 0
%           |0, 0, 0, 0, 0, 0, 0, 0, 0, 0, 0, 0, 0, 0, 0, 0, 0, 0, 0, 5, 0, 0, 0, 0, 0, 0
%           |];

% Distance matrix
Dist = [|0, 7, 8, 8, 3, 11, 1, 11, 11, 7, 10, 4, 5, 7, 9, 6, 5, 7, 8, 6, 8, 2, 8, 10, 7, 11
      |7, 0, 12, 5, 9, 8, 8, 8, 18, 11, 7, 8, 2, 4, 6, 3, 12, 8, 5, 13, 5, 9, 7, 7, 11, 18
      |8, 12, 0, 11, 11, 14, 7, 16, 9, 1, 15, 12, 10, 8, 6, 9, 3, 8, 13, 4, 11, 10, 9, 15, 12, 9
      |8, 5, 11, 0, 7, 3, 9, 9, 14, 10, 8, 8, 3, 5, 7, 4, 8, 3, 6, 9, 6, 10, 2, 8, 7, 14
      |3, 9, 11, 7, 0, 10, 4, 13, 14, 10, 12, 1, 7, 5, 7, 6, 8, 4, 10, 9, 8, 5, 5, 12, 4, 14
      |11, 8, 14, 3, 10, 0, 12, 12, 17, 13, 11, 11, 6, 8, 10, 7, 11, 6, 9, 12, 9, 13, 5, 11, 10, 17
      |1, 8, 7, 9, 4, 12, 0, 12, 10, 6, 11, 5, 6, 8, 10, 7, 4, 8, 9, 5, 9, 3, 9, 11, 8, 10
      |11, 8, 16, 9, 13, 12, 12, 0, 22, 15, 1, 12, 6, 8, 10, 7, 16, 12, 3, 17, 9, 13, 11, 4, 15, 22
      |11, 18, 9, 14, 14, 17, 10, 22, 0, 8, 21, 15, 16, 15, 13, 16, 6, 11, 19, 5, 18, 13, 12, 21, 15, 10
      |7, 11, 1, 10, 10, 13, 6, 15, 8, 0, 14, 11, 9, 7, 5, 8, 2, 7, 12, 3, 10, 9, 8, 14, 11, 8
      |10, 7, 15, 8, 12, 11, 11, 1, 21, 14, 0, 11, 5, 7, 9, 6, 15, 11, 2, 16, 8, 12, 10, 5, 14, 21
      |4, 8, 12, 8, 1, 11, 5, 12, 15, 11, 11, 0, 6, 4, 6, 5, 9, 5, 9, 10, 7, 6, 6, 11, 3, 15
      |5, 2, 10, 3, 7, 6, 6, 6, 16, 9, 5, 6, 0, 2, 4, 1, 10, 6, 3, 11, 3, 7, 5, 5, 9, 16
      |7, 4, 8, 5, 5, 8, 8, 8, 15, 7, 7, 4, 2, 0, 2, 1, 9, 6, 5, 10, 3, 9, 7, 7, 7, 15
      |9, 6, 6, 7, 7, 10, 10, 10, 13, 5, 9, 6, 4, 2, 0, 3, 7, 4, 7, 8, 5, 11, 5, 9, 8, 13
      |6, 3, 9, 4, 6, 7, 7, 7, 16, 8, 6, 5, 1, 1, 3, 0, 10, 7, 4, 11, 2, 8, 6, 6, 8, 16
      |5, 12, 3, 8, 8, 11, 4, 16, 6, 2, 15, 9, 10, 9, 7, 10, 0, 5, 13, 1, 12, 7, 6, 15, 9, 6
      |7, 8, 8, 3, 4, 6, 8, 12, 11, 7, 11, 5, 6, 6, 4, 7, 5, 0, 9, 6, 9, 9, 1, 11, 4, 11
      |8, 5, 13, 6, 10, 9, 9, 3, 19, 12, 2, 9, 3, 5, 7, 4, 13, 9, 0, 14, 6, 10, 8, 7, 12, 19
      |6, 13, 4, 9, 9, 12, 5, 17, 5, 3, 16, 10, 11, 10, 8, 11, 1, 6, 14, 0, 13, 8, 7, 16, 10, 5
      |8, 5, 11, 6, 8, 9, 9, 9, 18, 10, 8, 7, 3, 3, 5, 2, 12, 9, 6, 13, 0, 10, 8, 8, 10, 18
      |2, 9, 10, 10, 5, 13, 3, 13, 13, 9, 12, 6, 7, 9, 11, 8, 7, 9, 10, 8, 10, 0, 10, 12, 9, 13
      |8, 7, 9, 2, 5, 5, 9, 11, 12, 8, 10, 6, 5, 7, 5, 6, 6, 1, 8, 7, 8, 10, 0, 10, 5, 12
      |10, 7, 15, 8, 12, 11, 11, 4, 21, 14, 5, 11, 5, 7, 9, 6, 15, 11, 7, 16, 8, 12, 10, 0, 14, 21
      |7, 11, 12, 7, 4, 10, 8, 15, 15, 11, 14, 3, 9, 7, 8, 8, 9, 4, 12, 10, 10, 9, 5, 14, 0, 15
      |11, 18, 9, 14, 14, 17, 10, 22, 10, 8, 21, 15, 16, 15, 13, 16, 6, 11, 19, 5, 18, 13, 12, 21, 15, 0
      |];

% Initial object distribution
S_init = [0, 0, 0, 0, 1, 0, 0, 1, 0, 1, 0, 0, 1, 0, 0, 1, 0, 0, 0, 0, 0, 0, 1, 0, 0, 0];

% Target nodes (1 if target, 0 otherwise)
T = [0, 0, 0, 0, 0, 1, 0, 0, 0, 0, 1, 0, 0, 0, 0, 0, 1, 1, 1, 0, 1, 0, 0, 0, 0, 0];

% Initial truck position (1-based indexing)
u = 5;

% --- DEBUG TRACE ---
% --- GENERATION TRACE (Backwards from Target) ---
% Initial distribution (all on targets): [0, 0, 0, 0, 0, 1, 0, 0, 0, 0, 1, 0, 0, 0, 0, 0, 1, 1, 1, 0, 1, 0, 0, 0, 0, 0]
% Step 1: Selected target node 21 (has 1 objects)
% Step 1: Moved object 21 -> 16
% Step 1: Distribution: [0, 0, 0, 0, 0, 1, 0, 0, 0, 0, 1, 0, 0, 0, 0, 1, 1, 1, 1, 0, 0, 0, 0, 0, 0, 0]
% Step 2: Selected target node 19 (has 1 objects)
% Step 2: Moved object 19 -> 13
% Step 2: Distribution: [0, 0, 0, 0, 0, 1, 0, 0, 0, 0, 1, 0, 1, 0, 0, 1, 1, 1, 0, 0, 0, 0, 0, 0, 0, 0]
% Step 3: Selected target node 18 (has 1 objects)
% Step 3: Moved object 18 -> 15
% Step 3: Distribution: [0, 0, 0, 0, 0, 1, 0, 0, 0, 0, 1, 0, 1, 0, 1, 1, 1, 0, 0, 0, 0, 0, 0, 0, 0, 0]
% Step 4: Selected target node 6 (has 1 objects)
% Step 4: Moved object 6 -> 4
% Step 4: Distribution: [0, 0, 0, 1, 0, 0, 0, 0, 0, 0, 1, 0, 1, 0, 1, 1, 1, 0, 0, 0, 0, 0, 0, 0, 0, 0]
% Step 5: Selected target node 11 (has 1 objects)
% Step 5: Moved object 11 -> 8
% Step 5: Distribution: [0, 0, 0, 1, 0, 0, 0, 1, 0, 0, 0, 0, 1, 0, 1, 1, 1, 0, 0, 0, 0, 0, 0, 0, 0, 0]
% Step 6: Selected target node 17 (has 1 objects)
% Step 6: Moved object 17 -> 7
% Step 6: Distribution: [0, 0, 0, 1, 0, 0, 1, 1, 0, 0, 0, 0, 1, 0, 1, 1, 0, 0, 0, 0, 0, 0, 0, 0, 0, 0]
% Step 7: Selected non-target node 15 (has 1 objects)
% Step 7: Avoiding backtrack to node 18
% Step 7: Moved object 15 -> 10
% Step 7: Distribution: [0, 0, 0, 1, 0, 0, 1, 1, 0, 1, 0, 0, 1, 0, 0, 1, 0, 0, 0, 0, 0, 0, 0, 0, 0, 0]
% Step 8: Selected non-target node 4 (has 1 objects)
% Step 8: Avoiding backtrack to node 6
% Step 8: Moved object 4 -> 23
% Step 8: Distribution: [0, 0, 0, 0, 0, 0, 1, 1, 0, 1, 0, 0, 1, 0, 0, 1, 0, 0, 0, 0, 0, 0, 1, 0, 0, 0]
% Step 9: Selected non-target node 13 (has 1 objects)
% Step 9: Avoiding backtrack to node 19
% Step 9: Moved object 13 -> 4
% Step 9: Distribution: [0, 0, 0, 1, 0, 0, 1, 1, 0, 1, 0, 0, 0, 0, 0, 1, 0, 0, 0, 0, 0, 0, 1, 0, 0, 0]
% Step 10: Selected non-target node 7 (has 1 objects)
% Step 10: Avoiding backtrack to node 17
% Step 10: Moved object 7 -> 1
% Step 10: Distribution: [1, 0, 0, 1, 0, 0, 0, 1, 0, 1, 0, 0, 0, 0, 0, 1, 0, 0, 0, 0, 0, 0, 1, 0, 0, 0]
% Step 11: Selected non-target node 4 (has 1 objects)
% Step 11: Avoiding backtrack to node 13
% Step 11: Moved object 4 -> 23
% Step 11: Distribution: [1, 0, 0, 0, 0, 0, 0, 1, 0, 1, 0, 0, 0, 0, 0, 1, 0, 0, 0, 0, 0, 0, 2, 0, 0, 0]
% Step 12: Selected non-target node 23 (has 2 objects)
% Step 12: Moved object 23 -> 4
% Step 12: Distribution: [1, 0, 0, 1, 0, 0, 0, 1, 0, 1, 0, 0, 0, 0, 0, 1, 0, 0, 0, 0, 0, 0, 1, 0, 0, 0]
% Step 13: Selected non-target node 1 (has 1 objects)
% Step 13: Avoiding backtrack to node 7
% Step 13: Moved object 1 -> 5
% Step 13: Distribution: [0, 0, 0, 1, 1, 0, 0, 1, 0, 1, 0, 0, 0, 0, 0, 1, 0, 0, 0, 0, 0, 0, 1, 0, 0, 0]
% Step 14: Selected non-target node 4 (has 1 objects)
% Step 14: Avoiding backtrack to node 23
% Step 14: Moved object 4 -> 13
% Step 14: Distribution: [0, 0, 0, 0, 1, 0, 0, 1, 0, 1, 0, 0, 1, 0, 0, 1, 0, 0, 0, 0, 0, 0, 1, 0, 0, 0]
% Truck starting position: 5
