% instance_n18_c3_k14_i58.dzn
% Generated instance for the Trucks problem
% N=18, h=4, k=14

% Number of nodes
N = 18;

% Number of objects
h = 4;

% Maximum plan length
%k = 14;

% Adjacency matrix (0-based internal, will be converted to 1-based)
Adj = [|0, 1, 1, 0, 0, 0, 1, 1, 0, 0, 1, 1, 0, 0, 0, 0, 0, 0
      |1, 0, 0, 0, 0, 0, 0, 0, 0, 0, 0, 0, 0, 0, 0, 0, 1, 1
      |1, 0, 0, 0, 1, 0, 0, 0, 0, 0, 0, 0, 0, 0, 0, 0, 0, 0
      |0, 0, 0, 0, 0, 0, 0, 0, 0, 0, 1, 0, 0, 0, 0, 0, 0, 0
      |0, 0, 1, 0, 0, 0, 0, 0, 0, 0, 0, 0, 0, 0, 1, 0, 0, 0
      |0, 0, 0, 0, 0, 0, 0, 0, 0, 1, 0, 0, 0, 0, 0, 0, 0, 0
      |1, 0, 0, 0, 0, 0, 0, 0, 0, 0, 0, 0, 0, 0, 0, 0, 0, 1
      |1, 0, 0, 0, 0, 0, 0, 0, 0, 1, 0, 0, 0, 0, 0, 0, 0, 1
      |0, 0, 0, 0, 0, 0, 0, 0, 0, 0, 1, 0, 0, 0, 0, 1, 0, 0
      |0, 0, 0, 0, 0, 1, 0, 1, 0, 0, 0, 0, 1, 0, 0, 0, 0, 0
      |1, 0, 0, 1, 0, 0, 0, 0, 1, 0, 0, 0, 1, 0, 0, 1, 0, 0
      |1, 0, 0, 0, 0, 0, 0, 0, 0, 0, 0, 0, 0, 0, 1, 0, 0, 0
      |0, 0, 0, 0, 0, 0, 0, 0, 0, 1, 1, 0, 0, 0, 0, 0, 0, 0
      |0, 0, 0, 0, 0, 0, 0, 0, 0, 0, 0, 0, 0, 0, 0, 1, 0, 0
      |0, 0, 0, 0, 1, 0, 0, 0, 0, 0, 0, 1, 0, 0, 0, 0, 0, 0
      |0, 0, 0, 0, 0, 0, 0, 0, 1, 0, 1, 0, 0, 1, 0, 0, 0, 0
      |0, 1, 0, 0, 0, 0, 0, 0, 0, 0, 0, 0, 0, 0, 0, 0, 0, 0
      |0, 1, 0, 0, 0, 0, 1, 1, 0, 0, 0, 0, 0, 0, 0, 0, 0, 0
      |];

% Weights matrix (edge weights)
% Weights = [|0, 5, 5, 0, 0, 0, 4, 2, 0, 0, 1, 3, 0, 0, 0, 0, 0, 0
%           |5, 0, 0, 0, 0, 0, 0, 0, 0, 0, 0, 0, 0, 0, 0, 0, 5, 3
%           |5, 0, 0, 0, 4, 0, 0, 0, 0, 0, 0, 0, 0, 0, 0, 0, 0, 0
%           |0, 0, 0, 0, 0, 0, 0, 0, 0, 0, 1, 0, 0, 0, 0, 0, 0, 0
%           |0, 0, 4, 0, 0, 0, 0, 0, 0, 0, 0, 0, 0, 0, 3, 0, 0, 0
%           |0, 0, 0, 0, 0, 0, 0, 0, 0, 4, 0, 0, 0, 0, 0, 0, 0, 0
%           |4, 0, 0, 0, 0, 0, 0, 0, 0, 0, 0, 0, 0, 0, 0, 0, 0, 1
%           |2, 0, 0, 0, 0, 0, 0, 0, 0, 2, 0, 0, 0, 0, 0, 0, 0, 3
%           |0, 0, 0, 0, 0, 0, 0, 0, 0, 0, 1, 0, 0, 0, 0, 3, 0, 0
%           |0, 0, 0, 0, 0, 4, 0, 2, 0, 0, 0, 0, 5, 0, 0, 0, 0, 0
%           |1, 0, 0, 1, 0, 0, 0, 0, 1, 0, 0, 0, 2, 0, 0, 3, 0, 0
%           |3, 0, 0, 0, 0, 0, 0, 0, 0, 0, 0, 0, 0, 0, 4, 0, 0, 0
%           |0, 0, 0, 0, 0, 0, 0, 0, 0, 5, 2, 0, 0, 0, 0, 0, 0, 0
%           |0, 0, 0, 0, 0, 0, 0, 0, 0, 0, 0, 0, 0, 0, 0, 2, 0, 0
%           |0, 0, 0, 0, 3, 0, 0, 0, 0, 0, 0, 4, 0, 0, 0, 0, 0, 0
%           |0, 0, 0, 0, 0, 0, 0, 0, 3, 0, 3, 0, 0, 2, 0, 0, 0, 0
%           |0, 5, 0, 0, 0, 0, 0, 0, 0, 0, 0, 0, 0, 0, 0, 0, 0, 0
%           |0, 3, 0, 0, 0, 0, 1, 3, 0, 0, 0, 0, 0, 0, 0, 0, 0, 0
%           |];

% Distance matrix
Dist = [|0, 5, 5, 2, 9, 8, 4, 2, 2, 4, 1, 3, 3, 6, 7, 4, 10, 5
      |5, 0, 10, 7, 14, 12, 4, 6, 7, 8, 6, 8, 8, 11, 12, 9, 5, 3
      |5, 10, 0, 7, 4, 13, 9, 7, 7, 9, 6, 8, 8, 11, 7, 9, 15, 10
      |2, 7, 7, 0, 11, 10, 6, 4, 2, 6, 1, 5, 3, 6, 9, 4, 12, 7
      |9, 14, 4, 11, 0, 17, 13, 11, 11, 13, 10, 7, 12, 15, 3, 13, 19, 14
      |8, 12, 13, 10, 17, 0, 10, 6, 10, 4, 9, 11, 9, 14, 15, 12, 17, 9
      |4, 4, 9, 6, 13, 10, 0, 4, 6, 6, 5, 7, 7, 10, 11, 8, 9, 1
      |2, 6, 7, 4, 11, 6, 4, 0, 4, 2, 3, 5, 5, 8, 9, 6, 11, 3
      |2, 7, 7, 2, 11, 10, 6, 4, 0, 6, 1, 5, 3, 5, 9, 3, 12, 7
      |4, 8, 9, 6, 13, 4, 6, 2, 6, 0, 5, 7, 5, 10, 11, 8, 13, 5
      |1, 6, 6, 1, 10, 9, 5, 3, 1, 5, 0, 4, 2, 5, 8, 3, 11, 6
      |3, 8, 8, 5, 7, 11, 7, 5, 5, 7, 4, 0, 6, 9, 4, 7, 13, 8
      |3, 8, 8, 3, 12, 9, 7, 5, 3, 5, 2, 6, 0, 7, 10, 5, 13, 8
      |6, 11, 11, 6, 15, 14, 10, 8, 5, 10, 5, 9, 7, 0, 13, 2, 16, 11
      |7, 12, 7, 9, 3, 15, 11, 9, 9, 11, 8, 4, 10, 13, 0, 11, 17, 12
      |4, 9, 9, 4, 13, 12, 8, 6, 3, 8, 3, 7, 5, 2, 11, 0, 14, 9
      |10, 5, 15, 12, 19, 17, 9, 11, 12, 13, 11, 13, 13, 16, 17, 14, 0, 8
      |5, 3, 10, 7, 14, 9, 1, 3, 7, 5, 6, 8, 8, 11, 12, 9, 8, 0
      |];

% Initial object distribution
S_init = [2, 0, 0, 0, 1, 0, 0, 0, 0, 1, 0, 0, 0, 0, 0, 0, 0, 0];

% Target nodes (1 if target, 0 otherwise)
T = [0, 0, 1, 1, 0, 0, 1, 0, 0, 0, 0, 0, 0, 0, 0, 0, 0, 0];

% Initial truck position (1-based indexing)
u = 17;

% --- DEBUG TRACE ---
% --- GENERATION TRACE (Backwards from Target) ---
% Initial distribution (all on targets): [0, 0, 1, 1, 0, 0, 2, 0, 0, 0, 0, 0, 0, 0, 0, 0, 0, 0]
% Step 1: Selected target node 7 (has 2 objects)
% Step 1: Moved object 7 -> 1
% Step 1: Distribution: [1, 0, 1, 1, 0, 0, 1, 0, 0, 0, 0, 0, 0, 0, 0, 0, 0, 0]
% Step 2: Selected target node 7 (has 1 objects)
% Step 2: Moved object 7 -> 18
% Step 2: Distribution: [1, 0, 1, 1, 0, 0, 0, 0, 0, 0, 0, 0, 0, 0, 0, 0, 0, 1]
% Step 3: Selected target node 3 (has 1 objects)
% Step 3: Moved object 3 -> 1
% Step 3: Distribution: [2, 0, 0, 1, 0, 0, 0, 0, 0, 0, 0, 0, 0, 0, 0, 0, 0, 1]
% Step 4: Selected target node 4 (has 1 objects)
% Step 4: Moved object 4 -> 11
% Step 4: Distribution: [2, 0, 0, 0, 0, 0, 0, 0, 0, 0, 1, 0, 0, 0, 0, 0, 0, 1]
% Step 5: Selected non-target node 1 (has 2 objects)
% Step 5: Avoiding backtrack to node 3
% Step 5: Moved object 1 -> 2
% Step 5: Distribution: [1, 1, 0, 0, 0, 0, 0, 0, 0, 0, 1, 0, 0, 0, 0, 0, 0, 1]
% Step 6: Selected non-target node 2 (has 1 objects)
% Step 6: Avoiding backtrack to node 1
% Step 6: Moved object 2 -> 17
% Step 6: Distribution: [1, 0, 0, 0, 0, 0, 0, 0, 0, 0, 1, 0, 0, 0, 0, 0, 1, 1]
% Step 7: Selected non-target node 17 (has 1 objects)
% Step 7: Moved object 17 -> 2
% Step 7: Distribution: [1, 1, 0, 0, 0, 0, 0, 0, 0, 0, 1, 0, 0, 0, 0, 0, 0, 1]
% Step 8: Selected non-target node 2 (has 1 objects)
% Step 8: Avoiding backtrack to node 17
% Step 8: Moved object 2 -> 1
% Step 8: Distribution: [2, 0, 0, 0, 0, 0, 0, 0, 0, 0, 1, 0, 0, 0, 0, 0, 0, 1]
% Step 9: Selected non-target node 11 (has 1 objects)
% Step 9: Avoiding backtrack to node 4
% Step 9: Moved object 11 -> 1
% Step 9: Distribution: [3, 0, 0, 0, 0, 0, 0, 0, 0, 0, 0, 0, 0, 0, 0, 0, 0, 1]
% Step 10: Selected non-target node 1 (has 3 objects)
% Step 10: Avoiding backtrack to node 11
% Step 10: Moved object 1 -> 12
% Step 10: Distribution: [2, 0, 0, 0, 0, 0, 0, 0, 0, 0, 0, 1, 0, 0, 0, 0, 0, 1]
% Step 11: Selected non-target node 12 (has 1 objects)
% Step 11: Avoiding backtrack to node 1
% Step 11: Moved object 12 -> 15
% Step 11: Distribution: [2, 0, 0, 0, 0, 0, 0, 0, 0, 0, 0, 0, 0, 0, 1, 0, 0, 1]
% Step 12: Selected non-target node 15 (has 1 objects)
% Step 12: Avoiding backtrack to node 12
% Step 12: Moved object 15 -> 5
% Step 12: Distribution: [2, 0, 0, 0, 1, 0, 0, 0, 0, 0, 0, 0, 0, 0, 0, 0, 0, 1]
% Step 13: Selected non-target node 18 (has 1 objects)
% Step 13: Avoiding backtrack to node 7
% Step 13: Moved object 18 -> 8
% Step 13: Distribution: [2, 0, 0, 0, 1, 0, 0, 1, 0, 0, 0, 0, 0, 0, 0, 0, 0, 0]
% Step 14: Selected non-target node 8 (has 1 objects)
% Step 14: Avoiding backtrack to node 18
% Step 14: Moved object 8 -> 10
% Step 14: Distribution: [2, 0, 0, 0, 1, 0, 0, 0, 0, 1, 0, 0, 0, 0, 0, 0, 0, 0]
% Truck starting position: 17
