% instance_n10_c2_k11_i12.dzn
% Generated instance for the Trucks problem
% N=10, h=3, k=11

% Number of nodes
N = 10;

% Number of objects
h = 3;

% Maximum plan length
%k = 11;

% Adjacency matrix (0-based internal, will be converted to 1-based)
Adj = [|0, 0, 0, 1, 1, 1, 0, 0, 1, 0
      |0, 0, 0, 0, 0, 0, 1, 0, 0, 0
      |0, 0, 0, 1, 0, 0, 0, 0, 0, 0
      |1, 0, 1, 0, 1, 0, 1, 1, 0, 0
      |1, 0, 0, 1, 0, 0, 0, 0, 0, 1
      |1, 0, 0, 0, 0, 0, 1, 1, 1, 0
      |0, 1, 0, 1, 0, 1, 0, 0, 0, 0
      |0, 0, 0, 1, 0, 1, 0, 0, 0, 0
      |1, 0, 0, 0, 0, 1, 0, 0, 0, 0
      |0, 0, 0, 0, 1, 0, 0, 0, 0, 0
      |];

% Weights matrix (edge weights)
% Weights = [|0, 0, 0, 1, 4, 4, 0, 0, 4, 0
%           |0, 0, 0, 0, 0, 0, 3, 0, 0, 0
%           |0, 0, 0, 1, 0, 0, 0, 0, 0, 0
%           |1, 0, 1, 0, 3, 0, 2, 1, 0, 0
%           |4, 0, 0, 3, 0, 0, 0, 0, 0, 2
%           |4, 0, 0, 0, 0, 0, 3, 1, 1, 0
%           |0, 3, 0, 2, 0, 3, 0, 0, 0, 0
%           |0, 0, 0, 1, 0, 1, 0, 0, 0, 0
%           |4, 0, 0, 0, 0, 1, 0, 0, 0, 0
%           |0, 0, 0, 0, 2, 0, 0, 0, 0, 0
%           |];

% Distance matrix
Dist = [|0, 6, 2, 1, 4, 3, 3, 2, 4, 6
      |6, 0, 6, 5, 8, 6, 3, 6, 7, 10
      |2, 6, 0, 1, 4, 3, 3, 2, 4, 6
      |1, 5, 1, 0, 3, 2, 2, 1, 3, 5
      |4, 8, 4, 3, 0, 5, 5, 4, 6, 2
      |3, 6, 3, 2, 5, 0, 3, 1, 1, 7
      |3, 3, 3, 2, 5, 3, 0, 3, 4, 7
      |2, 6, 2, 1, 4, 1, 3, 0, 2, 6
      |4, 7, 4, 3, 6, 1, 4, 2, 0, 8
      |6, 10, 6, 5, 2, 7, 7, 6, 8, 0
      |];

% Initial object distribution
S_init = [0, 0, 0, 1, 2, 0, 0, 0, 0, 0];

% Target nodes (1 if target, 0 otherwise)
T = [0, 0, 0, 0, 0, 1, 1, 1, 0, 0];

% Initial truck position (1-based indexing)
u = 8;

% --- DEBUG TRACE ---
% --- GENERATION TRACE (Backwards from Target) ---
% Initial distribution (all on targets): [0, 0, 0, 0, 0, 1, 1, 1, 0, 0]
% Step 1: Selected target node 6 (has 1 objects)
% Step 1: Moved object 6 -> 1
% Step 1: Distribution: [1, 0, 0, 0, 0, 0, 1, 1, 0, 0]
% Step 2: Selected target node 8 (has 1 objects)
% Step 2: Moved object 8 -> 4
% Step 2: Distribution: [1, 0, 0, 1, 0, 0, 1, 0, 0, 0]
% Step 3: Selected target node 7 (has 1 objects)
% Step 3: Moved object 7 -> 4
% Step 3: Distribution: [1, 0, 0, 2, 0, 0, 0, 0, 0, 0]
% Step 4: Selected non-target node 4 (has 2 objects)
% Step 4: Avoiding backtrack to node 7
% Step 4: Moved object 4 -> 1
% Step 4: Distribution: [2, 0, 0, 1, 0, 0, 0, 0, 0, 0]
% Step 5: Selected non-target node 1 (has 2 objects)
% Step 5: Avoiding backtrack to node 4
% Step 5: Moved object 1 -> 5
% Step 5: Distribution: [1, 0, 0, 1, 1, 0, 0, 0, 0, 0]
% Step 6: Selected non-target node 1 (has 1 objects)
% Step 6: Avoiding backtrack to node 4
% Step 6: Moved object 1 -> 9
% Step 6: Distribution: [0, 0, 0, 1, 1, 0, 0, 0, 1, 0]
% Step 7: Selected non-target node 4 (has 1 objects)
% Step 7: Avoiding backtrack to node 7
% Step 7: Moved object 4 -> 5
% Step 7: Distribution: [0, 0, 0, 0, 2, 0, 0, 0, 1, 0]
% Step 8: Selected non-target node 9 (has 1 objects)
% Step 8: Moved object 9 -> 1
% Step 8: Distribution: [1, 0, 0, 0, 2, 0, 0, 0, 0, 0]
% Step 9: Selected non-target node 1 (has 1 objects)
% Step 9: Avoiding backtrack to node 9
% Step 9: Moved object 1 -> 4
% Step 9: Distribution: [0, 0, 0, 1, 2, 0, 0, 0, 0, 0]
% Step 10: Selected non-target node 5 (has 2 objects)
% Step 10: Avoiding backtrack to node 4
% Step 10: Moved object 5 -> 10
% Step 10: Distribution: [0, 0, 0, 1, 1, 0, 0, 0, 0, 1]
% Step 11: Selected non-target node 10 (has 1 objects)
% Step 11: Moved object 10 -> 5
% Step 11: Distribution: [0, 0, 0, 1, 2, 0, 0, 0, 0, 0]
% Truck starting position: 8
