% instance_n26_c1_k17_i89.dzn
% Generated instance for the Trucks problem
% N=26, h=6, k=17

% Number of nodes
N = 26;

% Number of objects
h = 6;

% Maximum plan length
%k = 17;

% Adjacency matrix (0-based internal, will be converted to 1-based)
Adj = [|0, 0, 0, 0, 1, 0, 0, 0, 0, 1, 0, 0, 0, 0, 0, 0, 0, 0, 0, 1, 0, 0, 0, 0, 1, 0
      |0, 0, 0, 0, 0, 0, 0, 0, 0, 0, 0, 0, 0, 0, 0, 1, 0, 0, 0, 0, 0, 0, 0, 0, 0, 0
      |0, 0, 0, 0, 0, 0, 0, 1, 0, 0, 0, 0, 0, 0, 0, 0, 0, 0, 0, 0, 0, 0, 0, 0, 0, 0
      |0, 0, 0, 0, 0, 1, 0, 0, 0, 0, 0, 0, 0, 0, 0, 0, 0, 0, 0, 0, 0, 0, 0, 0, 0, 0
      |1, 0, 0, 0, 0, 0, 0, 0, 0, 0, 0, 0, 0, 0, 0, 0, 0, 0, 0, 0, 0, 1, 0, 1, 0, 0
      |0, 0, 0, 1, 0, 0, 0, 0, 0, 1, 0, 0, 1, 0, 0, 0, 0, 0, 0, 0, 0, 0, 0, 1, 0, 0
      |0, 0, 0, 0, 0, 0, 0, 1, 0, 0, 0, 0, 1, 0, 0, 0, 0, 0, 0, 0, 0, 0, 0, 0, 0, 0
      |0, 0, 1, 0, 0, 0, 1, 0, 0, 0, 0, 0, 0, 0, 1, 0, 1, 0, 0, 1, 0, 0, 0, 0, 0, 0
      |0, 0, 0, 0, 0, 0, 0, 0, 0, 1, 0, 0, 0, 0, 0, 0, 0, 0, 0, 0, 0, 0, 1, 0, 0, 0
      |1, 0, 0, 0, 0, 1, 0, 0, 1, 0, 1, 0, 0, 0, 0, 0, 0, 0, 0, 0, 0, 0, 0, 0, 0, 0
      |0, 0, 0, 0, 0, 0, 0, 0, 0, 1, 0, 0, 0, 0, 0, 1, 0, 1, 0, 0, 1, 0, 0, 0, 1, 0
      |0, 0, 0, 0, 0, 0, 0, 0, 0, 0, 0, 0, 0, 0, 0, 0, 0, 0, 0, 0, 1, 0, 0, 0, 0, 0
      |0, 0, 0, 0, 0, 1, 1, 0, 0, 0, 0, 0, 0, 0, 0, 0, 0, 0, 0, 0, 1, 0, 0, 0, 0, 0
      |0, 0, 0, 0, 0, 0, 0, 0, 0, 0, 0, 0, 0, 0, 0, 0, 0, 0, 1, 0, 0, 0, 0, 0, 0, 0
      |0, 0, 0, 0, 0, 0, 0, 1, 0, 0, 0, 0, 0, 0, 0, 0, 0, 0, 0, 0, 0, 0, 0, 0, 1, 0
      |0, 1, 0, 0, 0, 0, 0, 0, 0, 0, 1, 0, 0, 0, 0, 0, 0, 0, 0, 0, 0, 0, 0, 1, 0, 0
      |0, 0, 0, 0, 0, 0, 0, 1, 0, 0, 0, 0, 0, 0, 0, 0, 0, 0, 0, 0, 0, 0, 0, 0, 0, 0
      |0, 0, 0, 0, 0, 0, 0, 0, 0, 0, 1, 0, 0, 0, 0, 0, 0, 0, 0, 0, 0, 0, 0, 0, 0, 0
      |0, 0, 0, 0, 0, 0, 0, 0, 0, 0, 0, 0, 0, 1, 0, 0, 0, 0, 0, 0, 0, 0, 0, 0, 1, 0
      |1, 0, 0, 0, 0, 0, 0, 1, 0, 0, 0, 0, 0, 0, 0, 0, 0, 0, 0, 0, 0, 0, 0, 0, 1, 0
      |0, 0, 0, 0, 0, 0, 0, 0, 0, 0, 1, 1, 1, 0, 0, 0, 0, 0, 0, 0, 0, 0, 0, 0, 0, 0
      |0, 0, 0, 0, 1, 0, 0, 0, 0, 0, 0, 0, 0, 0, 0, 0, 0, 0, 0, 0, 0, 0, 0, 0, 1, 0
      |0, 0, 0, 0, 0, 0, 0, 0, 1, 0, 0, 0, 0, 0, 0, 0, 0, 0, 0, 0, 0, 0, 0, 0, 0, 0
      |0, 0, 0, 0, 1, 1, 0, 0, 0, 0, 0, 0, 0, 0, 0, 1, 0, 0, 0, 0, 0, 0, 0, 0, 1, 0
      |1, 0, 0, 0, 0, 0, 0, 0, 0, 0, 1, 0, 0, 0, 1, 0, 0, 0, 1, 1, 0, 1, 0, 1, 0, 1
      |0, 0, 0, 0, 0, 0, 0, 0, 0, 0, 0, 0, 0, 0, 0, 0, 0, 0, 0, 0, 0, 0, 0, 0, 1, 0
      |];

% Weights matrix (edge weights)
% Weights = [|0, 0, 0, 0, 5, 0, 0, 0, 0, 3, 0, 0, 0, 0, 0, 0, 0, 0, 0, 3, 0, 0, 0, 0, 4, 0
%           |0, 0, 0, 0, 0, 0, 0, 0, 0, 0, 0, 0, 0, 0, 0, 5, 0, 0, 0, 0, 0, 0, 0, 0, 0, 0
%           |0, 0, 0, 0, 0, 0, 0, 3, 0, 0, 0, 0, 0, 0, 0, 0, 0, 0, 0, 0, 0, 0, 0, 0, 0, 0
%           |0, 0, 0, 0, 0, 1, 0, 0, 0, 0, 0, 0, 0, 0, 0, 0, 0, 0, 0, 0, 0, 0, 0, 0, 0, 0
%           |5, 0, 0, 0, 0, 0, 0, 0, 0, 0, 0, 0, 0, 0, 0, 0, 0, 0, 0, 0, 0, 5, 0, 1, 0, 0
%           |0, 0, 0, 1, 0, 0, 0, 0, 0, 4, 0, 0, 3, 0, 0, 0, 0, 0, 0, 0, 0, 0, 0, 3, 0, 0
%           |0, 0, 0, 0, 0, 0, 0, 4, 0, 0, 0, 0, 4, 0, 0, 0, 0, 0, 0, 0, 0, 0, 0, 0, 0, 0
%           |0, 0, 3, 0, 0, 0, 4, 0, 0, 0, 0, 0, 0, 0, 2, 0, 1, 0, 0, 1, 0, 0, 0, 0, 0, 0
%           |0, 0, 0, 0, 0, 0, 0, 0, 0, 3, 0, 0, 0, 0, 0, 0, 0, 0, 0, 0, 0, 0, 5, 0, 0, 0
%           |3, 0, 0, 0, 0, 4, 0, 0, 3, 0, 4, 0, 0, 0, 0, 0, 0, 0, 0, 0, 0, 0, 0, 0, 0, 0
%           |0, 0, 0, 0, 0, 0, 0, 0, 0, 4, 0, 0, 0, 0, 0, 4, 0, 3, 0, 0, 1, 0, 0, 0, 3, 0
%           |0, 0, 0, 0, 0, 0, 0, 0, 0, 0, 0, 0, 0, 0, 0, 0, 0, 0, 0, 0, 5, 0, 0, 0, 0, 0
%           |0, 0, 0, 0, 0, 3, 4, 0, 0, 0, 0, 0, 0, 0, 0, 0, 0, 0, 0, 0, 4, 0, 0, 0, 0, 0
%           |0, 0, 0, 0, 0, 0, 0, 0, 0, 0, 0, 0, 0, 0, 0, 0, 0, 0, 4, 0, 0, 0, 0, 0, 0, 0
%           |0, 0, 0, 0, 0, 0, 0, 2, 0, 0, 0, 0, 0, 0, 0, 0, 0, 0, 0, 0, 0, 0, 0, 0, 1, 0
%           |0, 5, 0, 0, 0, 0, 0, 0, 0, 0, 4, 0, 0, 0, 0, 0, 0, 0, 0, 0, 0, 0, 0, 4, 0, 0
%           |0, 0, 0, 0, 0, 0, 0, 1, 0, 0, 0, 0, 0, 0, 0, 0, 0, 0, 0, 0, 0, 0, 0, 0, 0, 0
%           |0, 0, 0, 0, 0, 0, 0, 0, 0, 0, 3, 0, 0, 0, 0, 0, 0, 0, 0, 0, 0, 0, 0, 0, 0, 0
%           |0, 0, 0, 0, 0, 0, 0, 0, 0, 0, 0, 0, 0, 4, 0, 0, 0, 0, 0, 0, 0, 0, 0, 0, 2, 0
%           |3, 0, 0, 0, 0, 0, 0, 1, 0, 0, 0, 0, 0, 0, 0, 0, 0, 0, 0, 0, 0, 0, 0, 0, 4, 0
%           |0, 0, 0, 0, 0, 0, 0, 0, 0, 0, 1, 5, 4, 0, 0, 0, 0, 0, 0, 0, 0, 0, 0, 0, 0, 0
%           |0, 0, 0, 0, 5, 0, 0, 0, 0, 0, 0, 0, 0, 0, 0, 0, 0, 0, 0, 0, 0, 0, 0, 0, 3, 0
%           |0, 0, 0, 0, 0, 0, 0, 0, 5, 0, 0, 0, 0, 0, 0, 0, 0, 0, 0, 0, 0, 0, 0, 0, 0, 0
%           |0, 0, 0, 0, 1, 3, 0, 0, 0, 0, 0, 0, 0, 0, 0, 4, 0, 0, 0, 0, 0, 0, 0, 0, 1, 0
%           |4, 0, 0, 0, 0, 0, 0, 0, 0, 0, 3, 0, 0, 0, 1, 0, 0, 0, 2, 4, 0, 3, 0, 1, 0, 5
%           |0, 0, 0, 0, 0, 0, 0, 0, 0, 0, 0, 0, 0, 0, 0, 0, 0, 0, 0, 0, 0, 0, 0, 0, 5, 0
%           |];

% Distance matrix
Dist = [|0, 14, 7, 8, 5, 7, 8, 4, 6, 3, 7, 13, 10, 10, 5, 9, 5, 10, 6, 3, 8, 7, 11, 5, 4, 9
      |14, 0, 16, 13, 10, 12, 17, 13, 16, 13, 9, 15, 14, 16, 11, 5, 14, 12, 12, 14, 10, 13, 21, 9, 10, 15
      |7, 16, 0, 11, 8, 10, 7, 3, 13, 10, 9, 15, 11, 12, 5, 11, 4, 12, 8, 4, 10, 9, 18, 7, 6, 11
      |8, 13, 11, 0, 5, 1, 8, 8, 8, 5, 8, 13, 4, 11, 6, 8, 9, 11, 7, 9, 8, 8, 13, 4, 5, 10
      |5, 10, 8, 5, 0, 4, 9, 5, 11, 8, 5, 11, 7, 8, 3, 5, 6, 8, 4, 6, 6, 5, 16, 1, 2, 7
      |7, 12, 10, 1, 4, 0, 7, 7, 7, 4, 7, 12, 3, 10, 5, 7, 8, 10, 6, 8, 7, 7, 12, 3, 4, 9
      |8, 17, 7, 8, 9, 7, 0, 4, 14, 11, 9, 13, 4, 13, 6, 12, 5, 12, 9, 5, 8, 10, 19, 8, 7, 12
      |4, 13, 3, 8, 5, 7, 4, 0, 10, 7, 6, 12, 8, 9, 2, 8, 1, 9, 5, 1, 7, 6, 15, 4, 3, 8
      |6, 16, 13, 8, 11, 7, 14, 10, 0, 3, 7, 13, 10, 16, 11, 11, 11, 10, 12, 9, 8, 13, 5, 10, 10, 15
      |3, 13, 10, 5, 8, 4, 11, 7, 3, 0, 4, 10, 7, 13, 8, 8, 8, 7, 9, 6, 5, 10, 8, 7, 7, 12
      |7, 9, 9, 8, 5, 7, 9, 6, 7, 4, 0, 6, 5, 9, 4, 4, 7, 3, 5, 7, 1, 6, 12, 4, 3, 8
      |13, 15, 15, 13, 11, 12, 13, 12, 13, 10, 6, 0, 9, 15, 10, 10, 13, 9, 11, 13, 5, 12, 18, 10, 9, 14
      |10, 14, 11, 4, 7, 3, 4, 8, 10, 7, 5, 9, 0, 13, 8, 9, 9, 8, 9, 9, 4, 10, 15, 6, 7, 12
      |10, 16, 12, 11, 8, 10, 13, 9, 16, 13, 9, 15, 13, 0, 7, 11, 10, 12, 4, 10, 10, 9, 21, 7, 6, 11
      |5, 11, 5, 6, 3, 5, 6, 2, 11, 8, 4, 10, 8, 7, 0, 6, 3, 7, 3, 3, 5, 4, 16, 2, 1, 6
      |9, 5, 11, 8, 5, 7, 12, 8, 11, 8, 4, 10, 9, 11, 6, 0, 9, 7, 7, 9, 5, 8, 16, 4, 5, 10
      |5, 14, 4, 9, 6, 8, 5, 1, 11, 8, 7, 13, 9, 10, 3, 9, 0, 10, 6, 2, 8, 7, 16, 5, 4, 9
      |10, 12, 12, 11, 8, 10, 12, 9, 10, 7, 3, 9, 8, 12, 7, 7, 10, 0, 8, 10, 4, 9, 15, 7, 6, 11
      |6, 12, 8, 7, 4, 6, 9, 5, 12, 9, 5, 11, 9, 4, 3, 7, 6, 8, 0, 6, 6, 5, 17, 3, 2, 7
      |3, 14, 4, 9, 6, 8, 5, 1, 9, 6, 7, 13, 9, 10, 3, 9, 2, 10, 6, 0, 8, 7, 14, 5, 4, 9
      |8, 10, 10, 8, 6, 7, 8, 7, 8, 5, 1, 5, 4, 10, 5, 5, 8, 4, 6, 8, 0, 7, 13, 5, 4, 9
      |7, 13, 9, 8, 5, 7, 10, 6, 13, 10, 6, 12, 10, 9, 4, 8, 7, 9, 5, 7, 7, 0, 18, 4, 3, 8
      |11, 21, 18, 13, 16, 12, 19, 15, 5, 8, 12, 18, 15, 21, 16, 16, 16, 15, 17, 14, 13, 18, 0, 15, 15, 20
      |5, 9, 7, 4, 1, 3, 8, 4, 10, 7, 4, 10, 6, 7, 2, 4, 5, 7, 3, 5, 5, 4, 15, 0, 1, 6
      |4, 10, 6, 5, 2, 4, 7, 3, 10, 7, 3, 9, 7, 6, 1, 5, 4, 6, 2, 4, 4, 3, 15, 1, 0, 5
      |9, 15, 11, 10, 7, 9, 12, 8, 15, 12, 8, 14, 12, 11, 6, 10, 9, 11, 7, 9, 9, 8, 20, 6, 5, 0
      |];

% Initial object distribution
S_init = [0, 0, 1, 0, 0, 0, 0, 1, 0, 0, 0, 0, 1, 0, 0, 0, 0, 0, 0, 0, 2, 0, 0, 0, 1, 0];

% Target nodes (1 if target, 0 otherwise)
T = [0, 1, 0, 0, 0, 0, 0, 0, 0, 0, 0, 1, 0, 0, 0, 0, 0, 0, 1, 0, 0, 1, 0, 0, 0, 0];

% Initial truck position (1-based indexing)
u = 23;

% --- DEBUG TRACE ---
% --- GENERATION TRACE (Backwards from Target) ---
% Initial distribution (all on targets): [0, 2, 0, 0, 0, 0, 0, 0, 0, 0, 0, 2, 0, 0, 0, 0, 0, 0, 1, 0, 0, 1, 0, 0, 0, 0]
% Step 1: Selected target node 12 (has 2 objects)
% Step 1: Moved object 12 -> 21
% Step 1: Distribution: [0, 2, 0, 0, 0, 0, 0, 0, 0, 0, 0, 1, 0, 0, 0, 0, 0, 0, 1, 0, 1, 1, 0, 0, 0, 0]
% Step 2: Selected target node 12 (has 1 objects)
% Step 2: Moved object 12 -> 21
% Step 2: Distribution: [0, 2, 0, 0, 0, 0, 0, 0, 0, 0, 0, 0, 0, 0, 0, 0, 0, 0, 1, 0, 2, 1, 0, 0, 0, 0]
% Step 3: Selected target node 19 (has 1 objects)
% Step 3: Moved object 19 -> 25
% Step 3: Distribution: [0, 2, 0, 0, 0, 0, 0, 0, 0, 0, 0, 0, 0, 0, 0, 0, 0, 0, 0, 0, 2, 1, 0, 0, 1, 0]
% Step 4: Selected target node 2 (has 2 objects)
% Step 4: Moved object 2 -> 16
% Step 4: Distribution: [0, 1, 0, 0, 0, 0, 0, 0, 0, 0, 0, 0, 0, 0, 0, 1, 0, 0, 0, 0, 2, 1, 0, 0, 1, 0]
% Step 5: Selected target node 2 (has 1 objects)
% Step 5: Moved object 2 -> 16
% Step 5: Distribution: [0, 0, 0, 0, 0, 0, 0, 0, 0, 0, 0, 0, 0, 0, 0, 2, 0, 0, 0, 0, 2, 1, 0, 0, 1, 0]
% Step 6: Selected target node 22 (has 1 objects)
% Step 6: Moved object 22 -> 25
% Step 6: Distribution: [0, 0, 0, 0, 0, 0, 0, 0, 0, 0, 0, 0, 0, 0, 0, 2, 0, 0, 0, 0, 2, 0, 0, 0, 2, 0]
% Step 7: Selected non-target node 16 (has 2 objects)
% Step 7: Avoiding backtrack to node 2
% Step 7: Moved object 16 -> 11
% Step 7: Distribution: [0, 0, 0, 0, 0, 0, 0, 0, 0, 0, 1, 0, 0, 0, 0, 1, 0, 0, 0, 0, 2, 0, 0, 0, 2, 0]
% Step 8: Selected non-target node 11 (has 1 objects)
% Step 8: Avoiding backtrack to node 16
% Step 8: Moved object 11 -> 10
% Step 8: Distribution: [0, 0, 0, 0, 0, 0, 0, 0, 0, 1, 0, 0, 0, 0, 0, 1, 0, 0, 0, 0, 2, 0, 0, 0, 2, 0]
% Step 9: Selected non-target node 10 (has 1 objects)
% Step 9: Avoiding backtrack to node 11
% Step 9: Moved object 10 -> 1
% Step 9: Distribution: [1, 0, 0, 0, 0, 0, 0, 0, 0, 0, 0, 0, 0, 0, 0, 1, 0, 0, 0, 0, 2, 0, 0, 0, 2, 0]
% Step 10: Selected non-target node 25 (has 2 objects)
% Step 10: Avoiding backtrack to node 22
% Step 10: Moved object 25 -> 20
% Step 10: Distribution: [1, 0, 0, 0, 0, 0, 0, 0, 0, 0, 0, 0, 0, 0, 0, 1, 0, 0, 0, 1, 2, 0, 0, 0, 1, 0]
% Step 11: Selected non-target node 16 (has 1 objects)
% Step 11: Avoiding backtrack to node 2
% Step 11: Moved object 16 -> 11
% Step 11: Distribution: [1, 0, 0, 0, 0, 0, 0, 0, 0, 0, 1, 0, 0, 0, 0, 0, 0, 0, 0, 1, 2, 0, 0, 0, 1, 0]
% Step 12: Selected non-target node 20 (has 1 objects)
% Step 12: Avoiding backtrack to node 25
% Step 12: Moved object 20 -> 8
% Step 12: Distribution: [1, 0, 0, 0, 0, 0, 0, 1, 0, 0, 1, 0, 0, 0, 0, 0, 0, 0, 0, 0, 2, 0, 0, 0, 1, 0]
% Step 13: Selected non-target node 11 (has 1 objects)
% Step 13: Avoiding backtrack to node 16
% Step 13: Moved object 11 -> 21
% Step 13: Distribution: [1, 0, 0, 0, 0, 0, 0, 1, 0, 0, 0, 0, 0, 0, 0, 0, 0, 0, 0, 0, 3, 0, 0, 0, 1, 0]
% Step 14: Selected non-target node 8 (has 1 objects)
% Step 14: Avoiding backtrack to node 20
% Step 14: Moved object 8 -> 3
% Step 14: Distribution: [1, 0, 1, 0, 0, 0, 0, 0, 0, 0, 0, 0, 0, 0, 0, 0, 0, 0, 0, 0, 3, 0, 0, 0, 1, 0]
% Step 15: Selected non-target node 1 (has 1 objects)
% Step 15: Avoiding backtrack to node 10
% Step 15: Moved object 1 -> 20
% Step 15: Distribution: [0, 0, 1, 0, 0, 0, 0, 0, 0, 0, 0, 0, 0, 0, 0, 0, 0, 0, 0, 1, 3, 0, 0, 0, 1, 0]
% Step 16: Selected non-target node 20 (has 1 objects)
% Step 16: Avoiding backtrack to node 1
% Step 16: Moved object 20 -> 8
% Step 16: Distribution: [0, 0, 1, 0, 0, 0, 0, 1, 0, 0, 0, 0, 0, 0, 0, 0, 0, 0, 0, 0, 3, 0, 0, 0, 1, 0]
% Step 17: Selected non-target node 21 (has 3 objects)
% Step 17: Avoiding backtrack to node 11
% Step 17: Moved object 21 -> 13
% Step 17: Distribution: [0, 0, 1, 0, 0, 0, 0, 1, 0, 0, 0, 0, 1, 0, 0, 0, 0, 0, 0, 0, 2, 0, 0, 0, 1, 0]
% Truck starting position: 23
