% instance_n26_c1_k8_i86.dzn
% Generated instance for the Trucks problem
% N=26, h=6, k=8

% Number of nodes
N = 26;

% Number of objects
h = 6;

% Maximum plan length
%k = 8;

% Adjacency matrix (0-based internal, will be converted to 1-based)
Adj = [|0, 0, 0, 1, 0, 0, 0, 0, 0, 0, 0, 0, 0, 0, 1, 0, 0, 0, 0, 1, 1, 0, 0, 0, 0, 1
      |0, 0, 0, 1, 0, 0, 0, 0, 0, 0, 0, 0, 0, 0, 0, 1, 1, 0, 0, 0, 0, 0, 0, 0, 0, 0
      |0, 0, 0, 0, 0, 0, 0, 0, 0, 0, 0, 0, 0, 0, 0, 0, 0, 0, 1, 0, 0, 0, 0, 0, 0, 0
      |1, 1, 0, 0, 0, 0, 0, 0, 0, 0, 0, 0, 0, 0, 0, 0, 0, 0, 0, 0, 0, 0, 0, 0, 0, 0
      |0, 0, 0, 0, 0, 0, 0, 1, 0, 0, 0, 0, 0, 0, 1, 1, 0, 0, 0, 0, 0, 0, 0, 0, 0, 1
      |0, 0, 0, 0, 0, 0, 0, 0, 0, 1, 0, 0, 0, 0, 0, 1, 0, 1, 0, 0, 0, 1, 1, 0, 0, 0
      |0, 0, 0, 0, 0, 0, 0, 0, 0, 0, 0, 0, 0, 0, 0, 0, 0, 0, 1, 0, 0, 1, 0, 0, 0, 0
      |0, 0, 0, 0, 1, 0, 0, 0, 0, 0, 0, 0, 0, 0, 0, 0, 0, 0, 0, 0, 0, 0, 0, 0, 0, 0
      |0, 0, 0, 0, 0, 0, 0, 0, 0, 0, 0, 0, 0, 0, 0, 0, 1, 0, 1, 0, 1, 0, 1, 0, 0, 0
      |0, 0, 0, 0, 0, 1, 0, 0, 0, 0, 0, 0, 0, 1, 0, 0, 0, 0, 1, 0, 0, 0, 0, 0, 0, 0
      |0, 0, 0, 0, 0, 0, 0, 0, 0, 0, 0, 0, 0, 0, 1, 0, 0, 0, 0, 0, 0, 0, 0, 0, 0, 0
      |0, 0, 0, 0, 0, 0, 0, 0, 0, 0, 0, 0, 1, 0, 0, 0, 1, 0, 0, 0, 0, 0, 0, 0, 0, 0
      |0, 0, 0, 0, 0, 0, 0, 0, 0, 0, 0, 1, 0, 0, 0, 0, 0, 0, 0, 0, 0, 0, 0, 0, 0, 0
      |0, 0, 0, 0, 0, 0, 0, 0, 0, 1, 0, 0, 0, 0, 0, 0, 0, 0, 0, 0, 1, 0, 0, 0, 0, 0
      |1, 0, 0, 0, 1, 0, 0, 0, 0, 0, 1, 0, 0, 0, 0, 0, 0, 0, 0, 0, 0, 0, 0, 0, 0, 0
      |0, 1, 0, 0, 1, 1, 0, 0, 0, 0, 0, 0, 0, 0, 0, 0, 0, 0, 0, 0, 0, 0, 0, 0, 1, 0
      |0, 1, 0, 0, 0, 0, 0, 0, 1, 0, 0, 1, 0, 0, 0, 0, 0, 0, 0, 0, 0, 0, 0, 0, 1, 0
      |0, 0, 0, 0, 0, 1, 0, 0, 0, 0, 0, 0, 0, 0, 0, 0, 0, 0, 0, 1, 0, 0, 0, 0, 0, 0
      |0, 0, 1, 0, 0, 0, 1, 0, 1, 1, 0, 0, 0, 0, 0, 0, 0, 0, 0, 0, 0, 0, 0, 0, 0, 0
      |1, 0, 0, 0, 0, 0, 0, 0, 0, 0, 0, 0, 0, 0, 0, 0, 0, 1, 0, 0, 0, 0, 0, 0, 0, 0
      |1, 0, 0, 0, 0, 0, 0, 0, 1, 0, 0, 0, 0, 1, 0, 0, 0, 0, 0, 0, 0, 0, 0, 1, 0, 0
      |0, 0, 0, 0, 0, 1, 1, 0, 0, 0, 0, 0, 0, 0, 0, 0, 0, 0, 0, 0, 0, 0, 1, 0, 0, 0
      |0, 0, 0, 0, 0, 1, 0, 0, 1, 0, 0, 0, 0, 0, 0, 0, 0, 0, 0, 0, 0, 1, 0, 0, 0, 0
      |0, 0, 0, 0, 0, 0, 0, 0, 0, 0, 0, 0, 0, 0, 0, 0, 0, 0, 0, 0, 1, 0, 0, 0, 0, 0
      |0, 0, 0, 0, 0, 0, 0, 0, 0, 0, 0, 0, 0, 0, 0, 1, 1, 0, 0, 0, 0, 0, 0, 0, 0, 0
      |1, 0, 0, 0, 1, 0, 0, 0, 0, 0, 0, 0, 0, 0, 0, 0, 0, 0, 0, 0, 0, 0, 0, 0, 0, 0
      |];

% Weights matrix (edge weights)
% Weights = [|0, 0, 0, 5, 0, 0, 0, 0, 0, 0, 0, 0, 0, 0, 3, 0, 0, 0, 0, 2, 1, 0, 0, 0, 0, 2
%           |0, 0, 0, 3, 0, 0, 0, 0, 0, 0, 0, 0, 0, 0, 0, 2, 4, 0, 0, 0, 0, 0, 0, 0, 0, 0
%           |0, 0, 0, 0, 0, 0, 0, 0, 0, 0, 0, 0, 0, 0, 0, 0, 0, 0, 2, 0, 0, 0, 0, 0, 0, 0
%           |5, 3, 0, 0, 0, 0, 0, 0, 0, 0, 0, 0, 0, 0, 0, 0, 0, 0, 0, 0, 0, 0, 0, 0, 0, 0
%           |0, 0, 0, 0, 0, 0, 0, 1, 0, 0, 0, 0, 0, 0, 3, 3, 0, 0, 0, 0, 0, 0, 0, 0, 0, 5
%           |0, 0, 0, 0, 0, 0, 0, 0, 0, 4, 0, 0, 0, 0, 0, 2, 0, 3, 0, 0, 0, 5, 3, 0, 0, 0
%           |0, 0, 0, 0, 0, 0, 0, 0, 0, 0, 0, 0, 0, 0, 0, 0, 0, 0, 4, 0, 0, 3, 0, 0, 0, 0
%           |0, 0, 0, 0, 1, 0, 0, 0, 0, 0, 0, 0, 0, 0, 0, 0, 0, 0, 0, 0, 0, 0, 0, 0, 0, 0
%           |0, 0, 0, 0, 0, 0, 0, 0, 0, 0, 0, 0, 0, 0, 0, 0, 4, 0, 1, 0, 2, 0, 3, 0, 0, 0
%           |0, 0, 0, 0, 0, 4, 0, 0, 0, 0, 0, 0, 0, 1, 0, 0, 0, 0, 2, 0, 0, 0, 0, 0, 0, 0
%           |0, 0, 0, 0, 0, 0, 0, 0, 0, 0, 0, 0, 0, 0, 2, 0, 0, 0, 0, 0, 0, 0, 0, 0, 0, 0
%           |0, 0, 0, 0, 0, 0, 0, 0, 0, 0, 0, 0, 2, 0, 0, 0, 1, 0, 0, 0, 0, 0, 0, 0, 0, 0
%           |0, 0, 0, 0, 0, 0, 0, 0, 0, 0, 0, 2, 0, 0, 0, 0, 0, 0, 0, 0, 0, 0, 0, 0, 0, 0
%           |0, 0, 0, 0, 0, 0, 0, 0, 0, 1, 0, 0, 0, 0, 0, 0, 0, 0, 0, 0, 5, 0, 0, 0, 0, 0
%           |3, 0, 0, 0, 3, 0, 0, 0, 0, 0, 2, 0, 0, 0, 0, 0, 0, 0, 0, 0, 0, 0, 0, 0, 0, 0
%           |0, 2, 0, 0, 3, 2, 0, 0, 0, 0, 0, 0, 0, 0, 0, 0, 0, 0, 0, 0, 0, 0, 0, 0, 5, 0
%           |0, 4, 0, 0, 0, 0, 0, 0, 4, 0, 0, 1, 0, 0, 0, 0, 0, 0, 0, 0, 0, 0, 0, 0, 3, 0
%           |0, 0, 0, 0, 0, 3, 0, 0, 0, 0, 0, 0, 0, 0, 0, 0, 0, 0, 0, 1, 0, 0, 0, 0, 0, 0
%           |0, 0, 2, 0, 0, 0, 4, 0, 1, 2, 0, 0, 0, 0, 0, 0, 0, 0, 0, 0, 0, 0, 0, 0, 0, 0
%           |2, 0, 0, 0, 0, 0, 0, 0, 0, 0, 0, 0, 0, 0, 0, 0, 0, 1, 0, 0, 0, 0, 0, 0, 0, 0
%           |1, 0, 0, 0, 0, 0, 0, 0, 2, 0, 0, 0, 0, 5, 0, 0, 0, 0, 0, 0, 0, 0, 0, 3, 0, 0
%           |0, 0, 0, 0, 0, 5, 3, 0, 0, 0, 0, 0, 0, 0, 0, 0, 0, 0, 0, 0, 0, 0, 4, 0, 0, 0
%           |0, 0, 0, 0, 0, 3, 0, 0, 3, 0, 0, 0, 0, 0, 0, 0, 0, 0, 0, 0, 0, 4, 0, 0, 0, 0
%           |0, 0, 0, 0, 0, 0, 0, 0, 0, 0, 0, 0, 0, 0, 0, 0, 0, 0, 0, 0, 3, 0, 0, 0, 0, 0
%           |0, 0, 0, 0, 0, 0, 0, 0, 0, 0, 0, 0, 0, 0, 0, 5, 3, 0, 0, 0, 0, 0, 0, 0, 0, 0
%           |2, 0, 0, 0, 5, 0, 0, 0, 0, 0, 0, 0, 0, 0, 0, 0, 0, 0, 0, 0, 0, 0, 0, 0, 0, 0
%           |];

% Distance matrix
Dist = [|0, 8, 6, 5, 6, 6, 8, 7, 3, 6, 5, 8, 10, 6, 3, 8, 7, 3, 4, 2, 1, 10, 6, 4, 10, 2
      |8, 0, 11, 3, 5, 4, 12, 6, 8, 8, 10, 5, 7, 9, 8, 2, 4, 7, 9, 8, 9, 9, 7, 12, 7, 10
      |6, 11, 0, 11, 12, 8, 6, 13, 3, 4, 11, 8, 10, 5, 9, 10, 7, 9, 2, 8, 5, 9, 6, 8, 10, 8
      |5, 3, 11, 0, 8, 7, 13, 9, 8, 11, 10, 8, 10, 11, 8, 5, 7, 8, 9, 7, 6, 12, 10, 9, 10, 7
      |6, 5, 12, 8, 0, 5, 13, 1, 9, 9, 5, 10, 12, 10, 3, 3, 9, 8, 10, 8, 7, 10, 8, 10, 8, 5
      |6, 4, 8, 7, 5, 0, 8, 6, 6, 4, 10, 9, 11, 5, 8, 2, 8, 3, 6, 4, 7, 5, 3, 10, 7, 8
      |8, 12, 6, 13, 13, 8, 0, 14, 5, 6, 13, 10, 12, 7, 11, 10, 9, 11, 4, 10, 7, 3, 7, 10, 12, 10
      |7, 6, 13, 9, 1, 6, 14, 0, 10, 10, 6, 11, 13, 11, 4, 4, 10, 9, 11, 9, 8, 11, 9, 11, 9, 6
      |3, 8, 3, 8, 9, 6, 5, 10, 0, 3, 8, 5, 7, 4, 6, 8, 4, 6, 1, 5, 2, 7, 3, 5, 7, 5
      |6, 8, 4, 11, 9, 4, 6, 10, 3, 0, 11, 8, 10, 1, 9, 6, 7, 7, 2, 8, 5, 9, 6, 8, 10, 8
      |5, 10, 11, 10, 5, 10, 13, 6, 8, 11, 0, 13, 15, 11, 2, 8, 12, 8, 9, 7, 6, 15, 11, 9, 13, 7
      |8, 5, 8, 8, 10, 9, 10, 11, 5, 8, 13, 0, 2, 9, 11, 7, 1, 11, 6, 10, 7, 12, 8, 10, 4, 10
      |10, 7, 10, 10, 12, 11, 12, 13, 7, 10, 15, 2, 0, 11, 13, 9, 3, 13, 8, 12, 9, 14, 10, 12, 6, 12
      |6, 9, 5, 11, 10, 5, 7, 11, 4, 1, 11, 9, 11, 0, 9, 7, 8, 8, 3, 8, 5, 10, 7, 8, 11, 8
      |3, 8, 9, 8, 3, 8, 11, 4, 6, 9, 2, 11, 13, 9, 0, 6, 10, 6, 7, 5, 4, 13, 9, 7, 11, 5
      |8, 2, 10, 5, 3, 2, 10, 4, 8, 6, 8, 7, 9, 7, 6, 0, 6, 5, 8, 6, 9, 7, 5, 12, 5, 8
      |7, 4, 7, 7, 9, 8, 9, 10, 4, 7, 12, 1, 3, 8, 10, 6, 0, 10, 5, 9, 6, 11, 7, 9, 3, 9
      |3, 7, 9, 8, 8, 3, 11, 9, 6, 7, 8, 11, 13, 8, 6, 5, 10, 0, 7, 1, 4, 8, 6, 7, 10, 5
      |4, 9, 2, 9, 10, 6, 4, 11, 1, 2, 9, 6, 8, 3, 7, 8, 5, 7, 0, 6, 3, 7, 4, 6, 8, 6
      |2, 8, 8, 7, 8, 4, 10, 9, 5, 8, 7, 10, 12, 8, 5, 6, 9, 1, 6, 0, 3, 9, 7, 6, 11, 4
      |1, 9, 5, 6, 7, 7, 7, 8, 2, 5, 6, 7, 9, 5, 4, 9, 6, 4, 3, 3, 0, 9, 5, 3, 9, 3
      |10, 9, 9, 12, 10, 5, 3, 11, 7, 9, 15, 12, 14, 10, 13, 7, 11, 8, 7, 9, 9, 0, 4, 12, 12, 12
      |6, 7, 6, 10, 8, 3, 7, 9, 3, 6, 11, 8, 10, 7, 9, 5, 7, 6, 4, 7, 5, 4, 0, 8, 10, 8
      |4, 12, 8, 9, 10, 10, 10, 11, 5, 8, 9, 10, 12, 8, 7, 12, 9, 7, 6, 6, 3, 12, 8, 0, 12, 6
      |10, 7, 10, 10, 8, 7, 12, 9, 7, 10, 13, 4, 6, 11, 11, 5, 3, 10, 8, 11, 9, 12, 10, 12, 0, 12
      |2, 10, 8, 7, 5, 8, 10, 6, 5, 8, 7, 10, 12, 8, 5, 8, 9, 5, 6, 4, 3, 12, 8, 6, 12, 0
      |];

% Initial object distribution
S_init = [0, 0, 0, 0, 1, 0, 0, 0, 0, 1, 0, 0, 1, 0, 0, 0, 0, 0, 0, 1, 0, 0, 0, 1, 0, 1];

% Target nodes (1 if target, 0 otherwise)
T = [1, 0, 0, 0, 0, 0, 0, 0, 0, 0, 0, 1, 0, 0, 0, 0, 0, 1, 0, 0, 1, 0, 0, 0, 0, 0];

% Initial truck position (1-based indexing)
u = 25;

% --- DEBUG TRACE ---
% --- GENERATION TRACE (Backwards from Target) ---
% Initial distribution (all on targets): [2, 0, 0, 0, 0, 0, 0, 0, 0, 0, 0, 1, 0, 0, 0, 0, 0, 2, 0, 0, 1, 0, 0, 0, 0, 0]
% Step 1: Selected target node 18 (has 2 objects)
% Step 1: Moved object 18 -> 20
% Step 1: Distribution: [2, 0, 0, 0, 0, 0, 0, 0, 0, 0, 0, 1, 0, 0, 0, 0, 0, 1, 0, 1, 1, 0, 0, 0, 0, 0]
% Step 2: Selected target node 1 (has 2 objects)
% Step 2: Moved object 1 -> 26
% Step 2: Distribution: [1, 0, 0, 0, 0, 0, 0, 0, 0, 0, 0, 1, 0, 0, 0, 0, 0, 1, 0, 1, 1, 0, 0, 0, 0, 1]
% Step 3: Selected target node 21 (has 1 objects)
% Step 3: Moved object 21 -> 24
% Step 3: Distribution: [1, 0, 0, 0, 0, 0, 0, 0, 0, 0, 0, 1, 0, 0, 0, 0, 0, 1, 0, 1, 0, 0, 0, 1, 0, 1]
% Step 4: Selected target node 18 (has 1 objects)
% Step 4: Moved object 18 -> 6
% Step 4: Distribution: [1, 0, 0, 0, 0, 1, 0, 0, 0, 0, 0, 1, 0, 0, 0, 0, 0, 0, 0, 1, 0, 0, 0, 1, 0, 1]
% Step 5: Selected target node 12 (has 1 objects)
% Step 5: Moved object 12 -> 13
% Step 5: Distribution: [1, 0, 0, 0, 0, 1, 0, 0, 0, 0, 0, 0, 1, 0, 0, 0, 0, 0, 0, 1, 0, 0, 0, 1, 0, 1]
% Step 6: Selected target node 1 (has 1 objects)
% Step 6: Moved object 1 -> 26
% Step 6: Distribution: [0, 0, 0, 0, 0, 1, 0, 0, 0, 0, 0, 0, 1, 0, 0, 0, 0, 0, 0, 1, 0, 0, 0, 1, 0, 2]
% Step 7: Selected non-target node 20 (has 1 objects)
% Step 7: Selected non-target node 6 (has 1 objects)
% Step 7: Avoiding backtrack to node 18
% Step 7: Moved object 6 -> 10
% Step 7: Distribution: [0, 0, 0, 0, 0, 0, 0, 0, 0, 1, 0, 0, 1, 0, 0, 0, 0, 0, 0, 1, 0, 0, 0, 1, 0, 2]
% Step 8: Selected non-target node 26 (has 2 objects)
% Step 8: Avoiding backtrack to node 1
% Step 8: Moved object 26 -> 5
% Step 8: Distribution: [0, 0, 0, 0, 1, 0, 0, 0, 0, 1, 0, 0, 1, 0, 0, 0, 0, 0, 0, 1, 0, 0, 0, 1, 0, 1]
% Truck starting position: 25
