% instance_n10_c2_k8_i11.dzn
% Generated instance for the Trucks problem
% N=10, h=3, k=8

% Number of nodes
N = 10;

% Number of objects
h = 3;

% Maximum plan length
%k = 8;

% Adjacency matrix (0-based internal, will be converted to 1-based)
Adj = [|0, 0, 0, 0, 0, 0, 1, 1, 0, 0
      |0, 0, 0, 0, 0, 0, 0, 0, 1, 0
      |0, 0, 0, 1, 1, 0, 0, 0, 0, 0
      |0, 0, 1, 0, 0, 0, 0, 0, 0, 0
      |0, 0, 1, 0, 0, 0, 1, 0, 0, 1
      |0, 0, 0, 0, 0, 0, 0, 0, 1, 1
      |1, 0, 0, 0, 1, 0, 0, 0, 1, 1
      |1, 0, 0, 0, 0, 0, 0, 0, 1, 1
      |0, 1, 0, 0, 0, 1, 1, 1, 0, 0
      |0, 0, 0, 0, 1, 1, 1, 1, 0, 0
      |];

% Weights matrix (edge weights)
% Weights = [|0, 0, 0, 0, 0, 0, 2, 2, 0, 0
%           |0, 0, 0, 0, 0, 0, 0, 0, 3, 0
%           |0, 0, 0, 4, 5, 0, 0, 0, 0, 0
%           |0, 0, 4, 0, 0, 0, 0, 0, 0, 0
%           |0, 0, 5, 0, 0, 0, 3, 0, 0, 4
%           |0, 0, 0, 0, 0, 0, 0, 0, 1, 5
%           |2, 0, 0, 0, 3, 0, 0, 0, 5, 1
%           |2, 0, 0, 0, 0, 0, 0, 0, 1, 4
%           |0, 3, 0, 0, 0, 1, 5, 1, 0, 0
%           |0, 0, 0, 0, 4, 5, 1, 4, 0, 0
%           |];

% Distance matrix
Dist = [|0, 6, 10, 14, 5, 4, 2, 2, 3, 3
      |6, 0, 16, 20, 11, 4, 8, 4, 3, 8
      |10, 16, 0, 4, 5, 14, 8, 12, 13, 9
      |14, 20, 4, 0, 9, 18, 12, 16, 17, 13
      |5, 11, 5, 9, 0, 9, 3, 7, 8, 4
      |4, 4, 14, 18, 9, 0, 6, 2, 1, 5
      |2, 8, 8, 12, 3, 6, 0, 4, 5, 1
      |2, 4, 12, 16, 7, 2, 4, 0, 1, 4
      |3, 3, 13, 17, 8, 1, 5, 1, 0, 5
      |3, 8, 9, 13, 4, 5, 1, 4, 5, 0
      |];

% Initial object distribution
S_init = [0, 0, 0, 1, 0, 1, 1, 0, 0, 0];

% Target nodes (1 if target, 0 otherwise)
T = [0, 0, 0, 0, 0, 0, 0, 1, 1, 1];

% Initial truck position (1-based indexing)
u = 6;

% --- DEBUG TRACE ---
% --- GENERATION TRACE (Backwards from Target) ---
% Initial distribution (all on targets): [0, 0, 0, 0, 0, 0, 0, 1, 1, 1]
% Step 1: Selected target node 9 (has 1 objects)
% Step 1: Moved object 9 -> 6
% Step 1: Distribution: [0, 0, 0, 0, 0, 1, 0, 1, 0, 1]
% Step 2: Selected target node 8 (has 1 objects)
% Step 2: Moved object 8 -> 1
% Step 2: Distribution: [1, 0, 0, 0, 0, 1, 0, 0, 0, 1]
% Step 3: Selected target node 10 (has 1 objects)
% Step 3: Moved object 10 -> 5
% Step 3: Distribution: [1, 0, 0, 0, 1, 1, 0, 0, 0, 0]
% Step 4: Selected non-target node 6 (has 1 objects)
% Step 4: Selected non-target node 5 (has 1 objects)
% Step 4: Avoiding backtrack to node 10
% Step 4: Moved object 5 -> 7
% Step 4: Distribution: [1, 0, 0, 0, 0, 1, 1, 0, 0, 0]
% Step 5: Selected non-target node 1 (has 1 objects)
% Step 5: Avoiding backtrack to node 8
% Step 5: Moved object 1 -> 7
% Step 5: Distribution: [0, 0, 0, 0, 0, 1, 2, 0, 0, 0]
% Step 6: Selected non-target node 6 (has 1 objects)
% Step 6: Selected non-target node 7 (has 2 objects)
% Step 6: Avoiding backtrack to node 1
% Step 6: Moved object 7 -> 5
% Step 6: Distribution: [0, 0, 0, 0, 1, 1, 1, 0, 0, 0]
% Step 7: Selected non-target node 5 (has 1 objects)
% Step 7: Avoiding backtrack to node 7
% Step 7: Moved object 5 -> 3
% Step 7: Distribution: [0, 0, 1, 0, 0, 1, 1, 0, 0, 0]
% Step 8: Selected non-target node 3 (has 1 objects)
% Step 8: Avoiding backtrack to node 5
% Step 8: Moved object 3 -> 4
% Step 8: Distribution: [0, 0, 0, 1, 0, 1, 1, 0, 0, 0]
% Truck starting position: 6
