% instance_n18_c3_k8_i56.dzn
% Generated instance for the Trucks problem
% N=18, h=4, k=8

% Number of nodes
N = 18;

% Number of objects
h = 4;

% Maximum plan length
%k = 8;

% Adjacency matrix (0-based internal, will be converted to 1-based)
Adj = [|0, 1, 0, 0, 0, 0, 0, 0, 0, 0, 1, 1, 0, 0, 0, 0, 0, 0
      |1, 0, 1, 0, 0, 1, 0, 0, 0, 1, 0, 0, 0, 0, 0, 0, 1, 0
      |0, 1, 0, 0, 0, 0, 1, 0, 0, 0, 0, 0, 1, 0, 0, 0, 0, 0
      |0, 0, 0, 0, 1, 0, 0, 0, 0, 0, 0, 0, 0, 0, 0, 0, 0, 1
      |0, 0, 0, 1, 0, 0, 0, 0, 0, 0, 1, 0, 1, 0, 0, 0, 0, 0
      |0, 1, 0, 0, 0, 0, 0, 0, 0, 0, 0, 0, 0, 0, 0, 0, 0, 0
      |0, 0, 1, 0, 0, 0, 0, 0, 0, 0, 0, 0, 0, 0, 0, 0, 1, 0
      |0, 0, 0, 0, 0, 0, 0, 0, 0, 0, 1, 0, 0, 0, 1, 0, 0, 0
      |0, 0, 0, 0, 0, 0, 0, 0, 0, 0, 1, 0, 0, 1, 1, 0, 0, 0
      |0, 1, 0, 0, 0, 0, 0, 0, 0, 0, 0, 0, 0, 0, 1, 0, 0, 0
      |1, 0, 0, 0, 1, 0, 0, 1, 1, 0, 0, 0, 0, 0, 0, 0, 0, 0
      |1, 0, 0, 0, 0, 0, 0, 0, 0, 0, 0, 0, 0, 0, 0, 1, 0, 0
      |0, 0, 1, 0, 1, 0, 0, 0, 0, 0, 0, 0, 0, 1, 0, 0, 0, 0
      |0, 0, 0, 0, 0, 0, 0, 0, 1, 0, 0, 0, 1, 0, 0, 0, 0, 0
      |0, 0, 0, 0, 0, 0, 0, 1, 1, 1, 0, 0, 0, 0, 0, 0, 0, 1
      |0, 0, 0, 0, 0, 0, 0, 0, 0, 0, 0, 1, 0, 0, 0, 0, 0, 1
      |0, 1, 0, 0, 0, 0, 1, 0, 0, 0, 0, 0, 0, 0, 0, 0, 0, 0
      |0, 0, 0, 1, 0, 0, 0, 0, 0, 0, 0, 0, 0, 0, 1, 1, 0, 0
      |];

% Weights matrix (edge weights)
% Weights = [|0, 1, 0, 0, 0, 0, 0, 0, 0, 0, 2, 1, 0, 0, 0, 0, 0, 0
%           |1, 0, 1, 0, 0, 2, 0, 0, 0, 2, 0, 0, 0, 0, 0, 0, 1, 0
%           |0, 1, 0, 0, 0, 0, 5, 0, 0, 0, 0, 0, 4, 0, 0, 0, 0, 0
%           |0, 0, 0, 0, 2, 0, 0, 0, 0, 0, 0, 0, 0, 0, 0, 0, 0, 4
%           |0, 0, 0, 2, 0, 0, 0, 0, 0, 0, 2, 0, 3, 0, 0, 0, 0, 0
%           |0, 2, 0, 0, 0, 0, 0, 0, 0, 0, 0, 0, 0, 0, 0, 0, 0, 0
%           |0, 0, 5, 0, 0, 0, 0, 0, 0, 0, 0, 0, 0, 0, 0, 0, 4, 0
%           |0, 0, 0, 0, 0, 0, 0, 0, 0, 0, 3, 0, 0, 0, 4, 0, 0, 0
%           |0, 0, 0, 0, 0, 0, 0, 0, 0, 0, 1, 0, 0, 3, 4, 0, 0, 0
%           |0, 2, 0, 0, 0, 0, 0, 0, 0, 0, 0, 0, 0, 0, 2, 0, 0, 0
%           |2, 0, 0, 0, 2, 0, 0, 3, 1, 0, 0, 0, 0, 0, 0, 0, 0, 0
%           |1, 0, 0, 0, 0, 0, 0, 0, 0, 0, 0, 0, 0, 0, 0, 2, 0, 0
%           |0, 0, 4, 0, 3, 0, 0, 0, 0, 0, 0, 0, 0, 3, 0, 0, 0, 0
%           |0, 0, 0, 0, 0, 0, 0, 0, 3, 0, 0, 0, 3, 0, 0, 0, 0, 0
%           |0, 0, 0, 0, 0, 0, 0, 4, 4, 2, 0, 0, 0, 0, 0, 0, 0, 4
%           |0, 0, 0, 0, 0, 0, 0, 0, 0, 0, 0, 2, 0, 0, 0, 0, 0, 2
%           |0, 1, 0, 0, 0, 0, 4, 0, 0, 0, 0, 0, 0, 0, 0, 0, 0, 0
%           |0, 0, 0, 4, 0, 0, 0, 0, 0, 0, 0, 0, 0, 0, 4, 2, 0, 0
%           |];

% Distance matrix
Dist = [|0, 1, 2, 6, 4, 3, 6, 5, 3, 3, 2, 1, 6, 6, 5, 3, 2, 5
      |1, 0, 1, 7, 5, 2, 5, 6, 4, 2, 3, 2, 5, 7, 4, 4, 1, 6
      |2, 1, 0, 8, 6, 3, 5, 7, 5, 3, 4, 3, 4, 7, 5, 5, 2, 7
      |6, 7, 8, 0, 2, 9, 12, 7, 5, 9, 4, 7, 5, 8, 8, 6, 8, 4
      |4, 5, 6, 2, 0, 7, 10, 5, 3, 7, 2, 5, 3, 6, 7, 7, 6, 6
      |3, 2, 3, 9, 7, 0, 7, 8, 6, 4, 5, 4, 7, 9, 6, 6, 3, 8
      |6, 5, 5, 12, 10, 7, 0, 11, 9, 7, 8, 7, 9, 12, 9, 9, 4, 11
      |5, 6, 7, 7, 5, 8, 11, 0, 4, 6, 3, 6, 8, 7, 4, 8, 7, 8
      |3, 4, 5, 5, 3, 6, 9, 4, 0, 6, 1, 4, 6, 3, 4, 6, 5, 8
      |3, 2, 3, 9, 7, 4, 7, 6, 6, 0, 5, 4, 7, 9, 2, 6, 3, 6
      |2, 3, 4, 4, 2, 5, 8, 3, 1, 5, 0, 3, 5, 4, 5, 5, 4, 7
      |1, 2, 3, 7, 5, 4, 7, 6, 4, 4, 3, 0, 7, 7, 6, 2, 3, 4
      |6, 5, 4, 5, 3, 7, 9, 8, 6, 7, 5, 7, 0, 3, 9, 9, 6, 9
      |6, 7, 7, 8, 6, 9, 12, 7, 3, 9, 4, 7, 3, 0, 7, 9, 8, 11
      |5, 4, 5, 8, 7, 6, 9, 4, 4, 2, 5, 6, 9, 7, 0, 6, 5, 4
      |3, 4, 5, 6, 7, 6, 9, 8, 6, 6, 5, 2, 9, 9, 6, 0, 5, 2
      |2, 1, 2, 8, 6, 3, 4, 7, 5, 3, 4, 3, 6, 8, 5, 5, 0, 7
      |5, 6, 7, 4, 6, 8, 11, 8, 8, 6, 7, 4, 9, 11, 4, 2, 7, 0
      |];

% Initial object distribution
S_init = [0, 1, 0, 0, 1, 0, 0, 0, 0, 1, 0, 0, 1, 0, 0, 0, 0, 0];

% Target nodes (1 if target, 0 otherwise)
T = [0, 0, 0, 0, 0, 1, 0, 0, 0, 0, 0, 0, 0, 1, 0, 0, 1, 0];

% Initial truck position (1-based indexing)
u = 1;

% --- DEBUG TRACE ---
% --- GENERATION TRACE (Backwards from Target) ---
% Initial distribution (all on targets): [0, 0, 0, 0, 0, 1, 0, 0, 0, 0, 0, 0, 0, 2, 0, 0, 1, 0]
% Step 1: Selected target node 17 (has 1 objects)
% Step 1: Moved object 17 -> 7
% Step 1: Distribution: [0, 0, 0, 0, 0, 1, 1, 0, 0, 0, 0, 0, 0, 2, 0, 0, 0, 0]
% Step 2: Selected target node 14 (has 2 objects)
% Step 2: Moved object 14 -> 13
% Step 2: Distribution: [0, 0, 0, 0, 0, 1, 1, 0, 0, 0, 0, 0, 1, 1, 0, 0, 0, 0]
% Step 3: Selected target node 14 (has 1 objects)
% Step 3: Moved object 14 -> 13
% Step 3: Distribution: [0, 0, 0, 0, 0, 1, 1, 0, 0, 0, 0, 0, 2, 0, 0, 0, 0, 0]
% Step 4: Selected target node 6 (has 1 objects)
% Step 4: Moved object 6 -> 2
% Step 4: Distribution: [0, 1, 0, 0, 0, 0, 1, 0, 0, 0, 0, 0, 2, 0, 0, 0, 0, 0]
% Step 5: Selected non-target node 13 (has 2 objects)
% Step 5: Avoiding backtrack to node 14
% Step 5: Moved object 13 -> 5
% Step 5: Distribution: [0, 1, 0, 0, 1, 0, 1, 0, 0, 0, 0, 0, 1, 0, 0, 0, 0, 0]
% Step 6: Selected non-target node 7 (has 1 objects)
% Step 6: Avoiding backtrack to node 17
% Step 6: Moved object 7 -> 3
% Step 6: Distribution: [0, 1, 1, 0, 1, 0, 0, 0, 0, 0, 0, 0, 1, 0, 0, 0, 0, 0]
% Step 7: Selected non-target node 3 (has 1 objects)
% Step 7: Avoiding backtrack to node 7
% Step 7: Moved object 3 -> 2
% Step 7: Distribution: [0, 2, 0, 0, 1, 0, 0, 0, 0, 0, 0, 0, 1, 0, 0, 0, 0, 0]
% Step 8: Selected non-target node 2 (has 2 objects)
% Step 8: Avoiding backtrack to node 3
% Step 8: Moved object 2 -> 10
% Step 8: Distribution: [0, 1, 0, 0, 1, 0, 0, 0, 0, 1, 0, 0, 1, 0, 0, 0, 0, 0]
% Truck starting position: 1
