% instance_n18_c1_k8_i46.dzn
% Generated instance for the Trucks problem
% N=18, h=4, k=8

% Number of nodes
N = 18;

% Number of objects
h = 4;

% Maximum plan length
%k = 8;

% Adjacency matrix (0-based internal, will be converted to 1-based)
Adj = [|0, 0, 1, 1, 1, 0, 0, 1, 0, 0, 0, 0, 1, 1, 0, 0, 0, 0
      |0, 0, 0, 0, 0, 0, 0, 0, 0, 1, 0, 0, 0, 0, 0, 0, 0, 0
      |1, 0, 0, 0, 0, 0, 0, 0, 0, 0, 0, 0, 1, 0, 0, 1, 0, 1
      |1, 0, 0, 0, 0, 0, 0, 0, 0, 0, 0, 0, 0, 1, 0, 0, 0, 0
      |1, 0, 0, 0, 0, 0, 0, 0, 0, 0, 0, 1, 1, 0, 0, 0, 0, 0
      |0, 0, 0, 0, 0, 0, 0, 0, 0, 0, 0, 0, 0, 1, 1, 0, 0, 0
      |0, 0, 0, 0, 0, 0, 0, 0, 0, 0, 1, 0, 0, 0, 0, 1, 0, 0
      |1, 0, 0, 0, 0, 0, 0, 0, 0, 0, 0, 0, 0, 0, 1, 0, 0, 0
      |0, 0, 0, 0, 0, 0, 0, 0, 0, 0, 0, 1, 0, 0, 0, 0, 0, 0
      |0, 1, 0, 0, 0, 0, 0, 0, 0, 0, 0, 0, 0, 0, 0, 0, 1, 0
      |0, 0, 0, 0, 0, 0, 1, 0, 0, 0, 0, 0, 0, 1, 0, 0, 0, 0
      |0, 0, 0, 0, 1, 0, 0, 0, 1, 0, 0, 0, 0, 0, 1, 1, 0, 0
      |1, 0, 1, 0, 1, 0, 0, 0, 0, 0, 0, 0, 0, 0, 0, 0, 0, 0
      |1, 0, 0, 1, 0, 1, 0, 0, 0, 0, 1, 0, 0, 0, 0, 0, 0, 0
      |0, 0, 0, 0, 0, 1, 0, 1, 0, 0, 0, 1, 0, 0, 0, 0, 0, 0
      |0, 0, 1, 0, 0, 0, 1, 0, 0, 0, 0, 1, 0, 0, 0, 0, 1, 0
      |0, 0, 0, 0, 0, 0, 0, 0, 0, 1, 0, 0, 0, 0, 0, 1, 0, 0
      |0, 0, 1, 0, 0, 0, 0, 0, 0, 0, 0, 0, 0, 0, 0, 0, 0, 0
      |];

% Weights matrix (edge weights)
% Weights = [|0, 0, 3, 4, 5, 0, 0, 3, 0, 0, 0, 0, 5, 4, 0, 0, 0, 0
%           |0, 0, 0, 0, 0, 0, 0, 0, 0, 1, 0, 0, 0, 0, 0, 0, 0, 0
%           |3, 0, 0, 0, 0, 0, 0, 0, 0, 0, 0, 0, 2, 0, 0, 4, 0, 5
%           |4, 0, 0, 0, 0, 0, 0, 0, 0, 0, 0, 0, 0, 3, 0, 0, 0, 0
%           |5, 0, 0, 0, 0, 0, 0, 0, 0, 0, 0, 2, 3, 0, 0, 0, 0, 0
%           |0, 0, 0, 0, 0, 0, 0, 0, 0, 0, 0, 0, 0, 2, 2, 0, 0, 0
%           |0, 0, 0, 0, 0, 0, 0, 0, 0, 0, 4, 0, 0, 0, 0, 1, 0, 0
%           |3, 0, 0, 0, 0, 0, 0, 0, 0, 0, 0, 0, 0, 0, 2, 0, 0, 0
%           |0, 0, 0, 0, 0, 0, 0, 0, 0, 0, 0, 2, 0, 0, 0, 0, 0, 0
%           |0, 1, 0, 0, 0, 0, 0, 0, 0, 0, 0, 0, 0, 0, 0, 0, 2, 0
%           |0, 0, 0, 0, 0, 0, 4, 0, 0, 0, 0, 0, 0, 1, 0, 0, 0, 0
%           |0, 0, 0, 0, 2, 0, 0, 0, 2, 0, 0, 0, 0, 0, 1, 2, 0, 0
%           |5, 0, 2, 0, 3, 0, 0, 0, 0, 0, 0, 0, 0, 0, 0, 0, 0, 0
%           |4, 0, 0, 3, 0, 2, 0, 0, 0, 0, 1, 0, 0, 0, 0, 0, 0, 0
%           |0, 0, 0, 0, 0, 2, 0, 2, 0, 0, 0, 1, 0, 0, 0, 0, 0, 0
%           |0, 0, 4, 0, 0, 0, 1, 0, 0, 0, 0, 2, 0, 0, 0, 0, 1, 0
%           |0, 0, 0, 0, 0, 0, 0, 0, 0, 2, 0, 0, 0, 0, 0, 1, 0, 0
%           |0, 0, 5, 0, 0, 0, 0, 0, 0, 0, 0, 0, 0, 0, 0, 0, 0, 0
%           |];

% Distance matrix
Dist = [|0, 11, 3, 4, 5, 6, 8, 3, 8, 10, 5, 6, 5, 4, 5, 7, 8, 8
      |11, 0, 8, 13, 8, 9, 5, 9, 8, 1, 9, 6, 10, 10, 7, 4, 3, 13
      |3, 8, 0, 7, 5, 9, 5, 6, 8, 7, 8, 6, 2, 7, 7, 4, 5, 5
      |4, 13, 7, 0, 9, 5, 8, 7, 10, 12, 4, 8, 9, 3, 7, 9, 10, 12
      |5, 8, 5, 9, 0, 5, 5, 5, 4, 7, 8, 2, 3, 7, 3, 4, 5, 10
      |6, 9, 9, 5, 5, 0, 6, 4, 5, 8, 3, 3, 8, 2, 2, 5, 6, 14
      |8, 5, 5, 8, 5, 6, 0, 6, 5, 4, 4, 3, 7, 5, 4, 1, 2, 10
      |3, 9, 6, 7, 5, 4, 6, 0, 5, 8, 7, 3, 8, 6, 2, 5, 6, 11
      |8, 8, 8, 10, 4, 5, 5, 5, 0, 7, 8, 2, 7, 7, 3, 4, 5, 13
      |10, 1, 7, 12, 7, 8, 4, 8, 7, 0, 8, 5, 9, 9, 6, 3, 2, 12
      |5, 9, 8, 4, 8, 3, 4, 7, 8, 8, 0, 6, 10, 1, 5, 5, 6, 13
      |6, 6, 6, 8, 2, 3, 3, 3, 2, 5, 6, 0, 5, 5, 1, 2, 3, 11
      |5, 10, 2, 9, 3, 8, 7, 8, 7, 9, 10, 5, 0, 9, 6, 6, 7, 7
      |4, 10, 7, 3, 7, 2, 5, 6, 7, 9, 1, 5, 9, 0, 4, 6, 7, 12
      |5, 7, 7, 7, 3, 2, 4, 2, 3, 6, 5, 1, 6, 4, 0, 3, 4, 12
      |7, 4, 4, 9, 4, 5, 1, 5, 4, 3, 5, 2, 6, 6, 3, 0, 1, 9
      |8, 3, 5, 10, 5, 6, 2, 6, 5, 2, 6, 3, 7, 7, 4, 1, 0, 10
      |8, 13, 5, 12, 10, 14, 10, 11, 13, 12, 13, 11, 7, 12, 12, 9, 10, 0
      |];

% Initial object distribution
S_init = [0, 1, 0, 0, 1, 0, 1, 0, 1, 0, 0, 0, 0, 0, 0, 0, 0, 0];

% Target nodes (1 if target, 0 otherwise)
T = [1, 0, 1, 0, 0, 0, 0, 0, 0, 0, 0, 0, 1, 0, 0, 0, 1, 0];

% Initial truck position (1-based indexing)
u = 13;

% --- DEBUG TRACE ---
% --- GENERATION TRACE (Backwards from Target) ---
% Initial distribution (all on targets): [1, 0, 1, 0, 0, 0, 0, 0, 0, 0, 0, 0, 1, 0, 0, 0, 1, 0]
% Step 1: Selected target node 13 (has 1 objects)
% Step 1: Moved object 13 -> 5
% Step 1: Distribution: [1, 0, 1, 0, 1, 0, 0, 0, 0, 0, 0, 0, 0, 0, 0, 0, 1, 0]
% Step 2: Selected target node 17 (has 1 objects)
% Step 2: Moved object 17 -> 10
% Step 2: Distribution: [1, 0, 1, 0, 1, 0, 0, 0, 0, 1, 0, 0, 0, 0, 0, 0, 0, 0]
% Step 3: Selected target node 3 (has 1 objects)
% Step 3: Moved object 3 -> 16
% Step 3: Distribution: [1, 0, 0, 0, 1, 0, 0, 0, 0, 1, 0, 0, 0, 0, 0, 1, 0, 0]
% Step 4: Selected target node 1 (has 1 objects)
% Step 4: Moved object 1 -> 5
% Step 4: Distribution: [0, 0, 0, 0, 2, 0, 0, 0, 0, 1, 0, 0, 0, 0, 0, 1, 0, 0]
% Step 5: Selected non-target node 5 (has 2 objects)
% Step 5: Avoiding backtrack to node 1
% Step 5: Moved object 5 -> 12
% Step 5: Distribution: [0, 0, 0, 0, 1, 0, 0, 0, 0, 1, 0, 1, 0, 0, 0, 1, 0, 0]
% Step 6: Selected non-target node 10 (has 1 objects)
% Step 6: Avoiding backtrack to node 17
% Step 6: Moved object 10 -> 2
% Step 6: Distribution: [0, 1, 0, 0, 1, 0, 0, 0, 0, 0, 0, 1, 0, 0, 0, 1, 0, 0]
% Step 7: Selected non-target node 12 (has 1 objects)
% Step 7: Avoiding backtrack to node 5
% Step 7: Moved object 12 -> 9
% Step 7: Distribution: [0, 1, 0, 0, 1, 0, 0, 0, 1, 0, 0, 0, 0, 0, 0, 1, 0, 0]
% Step 8: Selected non-target node 16 (has 1 objects)
% Step 8: Avoiding backtrack to node 3
% Step 8: Moved object 16 -> 7
% Step 8: Distribution: [0, 1, 0, 0, 1, 0, 1, 0, 1, 0, 0, 0, 0, 0, 0, 0, 0, 0]
% Truck starting position: 13
