% instance_n22_c2_k8_i71.dzn
% Generated instance for the Trucks problem
% N=22, h=5, k=8

% Number of nodes
N = 22;

% Number of objects
h = 5;

% Maximum plan length
%k = 8;

% Adjacency matrix (0-based internal, will be converted to 1-based)
Adj = [|0, 1, 0, 0, 0, 0, 0, 0, 0, 0, 1, 0, 0, 1, 0, 0, 0, 0, 0, 0, 1, 0
      |1, 0, 0, 0, 0, 0, 0, 0, 0, 0, 0, 0, 0, 0, 0, 0, 1, 0, 0, 0, 0, 0
      |0, 0, 0, 1, 0, 0, 0, 0, 1, 0, 0, 0, 0, 0, 0, 0, 0, 0, 0, 0, 0, 0
      |0, 0, 1, 0, 0, 0, 0, 0, 0, 0, 0, 1, 0, 0, 0, 0, 0, 0, 0, 1, 1, 0
      |0, 0, 0, 0, 0, 1, 0, 0, 0, 0, 0, 1, 0, 0, 0, 0, 1, 0, 0, 0, 0, 0
      |0, 0, 0, 0, 1, 0, 0, 0, 0, 0, 0, 1, 0, 0, 0, 0, 0, 0, 0, 0, 0, 0
      |0, 0, 0, 0, 0, 0, 0, 0, 0, 1, 0, 0, 1, 0, 0, 0, 0, 1, 0, 0, 1, 1
      |0, 0, 0, 0, 0, 0, 0, 0, 0, 0, 0, 0, 0, 0, 0, 0, 1, 0, 0, 0, 0, 0
      |0, 0, 1, 0, 0, 0, 0, 0, 0, 0, 0, 0, 0, 0, 0, 0, 0, 0, 0, 0, 0, 0
      |0, 0, 0, 0, 0, 0, 1, 0, 0, 0, 0, 0, 0, 0, 0, 0, 0, 0, 0, 0, 0, 0
      |1, 0, 0, 0, 0, 0, 0, 0, 0, 0, 0, 0, 0, 0, 0, 0, 0, 0, 0, 0, 0, 0
      |0, 0, 0, 1, 1, 1, 0, 0, 0, 0, 0, 0, 0, 1, 0, 0, 0, 0, 0, 0, 0, 0
      |0, 0, 0, 0, 0, 0, 1, 0, 0, 0, 0, 0, 0, 0, 0, 0, 0, 0, 0, 0, 0, 0
      |1, 0, 0, 0, 0, 0, 0, 0, 0, 0, 0, 1, 0, 0, 1, 0, 0, 0, 0, 1, 1, 1
      |0, 0, 0, 0, 0, 0, 0, 0, 0, 0, 0, 0, 0, 1, 0, 0, 0, 0, 0, 0, 0, 0
      |0, 0, 0, 0, 0, 0, 0, 0, 0, 0, 0, 0, 0, 0, 0, 0, 0, 0, 1, 0, 1, 0
      |0, 1, 0, 0, 1, 0, 0, 1, 0, 0, 0, 0, 0, 0, 0, 0, 0, 0, 0, 0, 0, 0
      |0, 0, 0, 0, 0, 0, 1, 0, 0, 0, 0, 0, 0, 0, 0, 0, 0, 0, 0, 0, 1, 0
      |0, 0, 0, 0, 0, 0, 0, 0, 0, 0, 0, 0, 0, 0, 0, 1, 0, 0, 0, 0, 0, 0
      |0, 0, 0, 1, 0, 0, 0, 0, 0, 0, 0, 0, 0, 1, 0, 0, 0, 0, 0, 0, 0, 0
      |1, 0, 0, 1, 0, 0, 1, 0, 0, 0, 0, 0, 0, 1, 0, 1, 0, 1, 0, 0, 0, 1
      |0, 0, 0, 0, 0, 0, 1, 0, 0, 0, 0, 0, 0, 1, 0, 0, 0, 0, 0, 0, 1, 0
      |];

% Weights matrix (edge weights)
% Weights = [|0, 3, 0, 0, 0, 0, 0, 0, 0, 0, 4, 0, 0, 3, 0, 0, 0, 0, 0, 0, 1, 0
%           |3, 0, 0, 0, 0, 0, 0, 0, 0, 0, 0, 0, 0, 0, 0, 0, 4, 0, 0, 0, 0, 0
%           |0, 0, 0, 4, 0, 0, 0, 0, 1, 0, 0, 0, 0, 0, 0, 0, 0, 0, 0, 0, 0, 0
%           |0, 0, 4, 0, 0, 0, 0, 0, 0, 0, 0, 3, 0, 0, 0, 0, 0, 0, 0, 4, 3, 0
%           |0, 0, 0, 0, 0, 2, 0, 0, 0, 0, 0, 5, 0, 0, 0, 0, 2, 0, 0, 0, 0, 0
%           |0, 0, 0, 0, 2, 0, 0, 0, 0, 0, 0, 5, 0, 0, 0, 0, 0, 0, 0, 0, 0, 0
%           |0, 0, 0, 0, 0, 0, 0, 0, 0, 3, 0, 0, 3, 0, 0, 0, 0, 1, 0, 0, 3, 5
%           |0, 0, 0, 0, 0, 0, 0, 0, 0, 0, 0, 0, 0, 0, 0, 0, 4, 0, 0, 0, 0, 0
%           |0, 0, 1, 0, 0, 0, 0, 0, 0, 0, 0, 0, 0, 0, 0, 0, 0, 0, 0, 0, 0, 0
%           |0, 0, 0, 0, 0, 0, 3, 0, 0, 0, 0, 0, 0, 0, 0, 0, 0, 0, 0, 0, 0, 0
%           |4, 0, 0, 0, 0, 0, 0, 0, 0, 0, 0, 0, 0, 0, 0, 0, 0, 0, 0, 0, 0, 0
%           |0, 0, 0, 3, 5, 5, 0, 0, 0, 0, 0, 0, 0, 3, 0, 0, 0, 0, 0, 0, 0, 0
%           |0, 0, 0, 0, 0, 0, 3, 0, 0, 0, 0, 0, 0, 0, 0, 0, 0, 0, 0, 0, 0, 0
%           |3, 0, 0, 0, 0, 0, 0, 0, 0, 0, 0, 3, 0, 0, 1, 0, 0, 0, 0, 3, 4, 3
%           |0, 0, 0, 0, 0, 0, 0, 0, 0, 0, 0, 0, 0, 1, 0, 0, 0, 0, 0, 0, 0, 0
%           |0, 0, 0, 0, 0, 0, 0, 0, 0, 0, 0, 0, 0, 0, 0, 0, 0, 0, 4, 0, 5, 0
%           |0, 4, 0, 0, 2, 0, 0, 4, 0, 0, 0, 0, 0, 0, 0, 0, 0, 0, 0, 0, 0, 0
%           |0, 0, 0, 0, 0, 0, 1, 0, 0, 0, 0, 0, 0, 0, 0, 0, 0, 0, 0, 0, 3, 0
%           |0, 0, 0, 0, 0, 0, 0, 0, 0, 0, 0, 0, 0, 0, 0, 4, 0, 0, 0, 0, 0, 0
%           |0, 0, 0, 4, 0, 0, 0, 0, 0, 0, 0, 0, 0, 3, 0, 0, 0, 0, 0, 0, 0, 0
%           |1, 0, 0, 3, 0, 0, 3, 0, 0, 0, 0, 0, 0, 4, 0, 5, 0, 3, 0, 0, 0, 3
%           |0, 0, 0, 0, 0, 0, 5, 0, 0, 0, 0, 0, 0, 3, 0, 0, 0, 0, 0, 0, 3, 0
%           |];

% Distance matrix
Dist = [|0, 3, 8, 4, 9, 11, 4, 11, 9, 7, 4, 6, 7, 3, 4, 6, 7, 4, 10, 6, 1, 4
      |3, 0, 11, 7, 6, 8, 7, 8, 12, 10, 7, 9, 10, 6, 7, 9, 4, 7, 13, 9, 4, 7
      |8, 11, 0, 4, 12, 12, 10, 18, 1, 13, 12, 7, 13, 10, 11, 12, 14, 10, 16, 8, 7, 10
      |4, 7, 4, 0, 8, 8, 6, 14, 5, 9, 8, 3, 9, 6, 7, 8, 10, 6, 12, 4, 3, 6
      |9, 6, 12, 8, 0, 2, 13, 6, 13, 16, 13, 5, 16, 8, 9, 15, 2, 13, 19, 11, 10, 11
      |11, 8, 12, 8, 2, 0, 14, 8, 13, 17, 15, 5, 17, 8, 9, 16, 4, 14, 20, 11, 11, 11
      |4, 7, 10, 6, 13, 14, 0, 15, 11, 3, 8, 9, 3, 7, 8, 8, 11, 1, 12, 10, 3, 5
      |11, 8, 18, 14, 6, 8, 15, 0, 19, 18, 15, 11, 18, 14, 15, 17, 4, 15, 21, 17, 12, 15
      |9, 12, 1, 5, 13, 13, 11, 19, 0, 14, 13, 8, 14, 11, 12, 13, 15, 11, 17, 9, 8, 11
      |7, 10, 13, 9, 16, 17, 3, 18, 14, 0, 11, 12, 6, 10, 11, 11, 14, 4, 15, 13, 6, 8
      |4, 7, 12, 8, 13, 15, 8, 15, 13, 11, 0, 10, 11, 7, 8, 10, 11, 8, 14, 10, 5, 8
      |6, 9, 7, 3, 5, 5, 9, 11, 8, 12, 10, 0, 12, 3, 4, 11, 7, 9, 15, 6, 6, 6
      |7, 10, 13, 9, 16, 17, 3, 18, 14, 6, 11, 12, 0, 10, 11, 11, 14, 4, 15, 13, 6, 8
      |3, 6, 10, 6, 8, 8, 7, 14, 11, 10, 7, 3, 10, 0, 1, 9, 10, 7, 13, 3, 4, 3
      |4, 7, 11, 7, 9, 9, 8, 15, 12, 11, 8, 4, 11, 1, 0, 10, 11, 8, 14, 4, 5, 4
      |6, 9, 12, 8, 15, 16, 8, 17, 13, 11, 10, 11, 11, 9, 10, 0, 13, 8, 4, 12, 5, 8
      |7, 4, 14, 10, 2, 4, 11, 4, 15, 14, 11, 7, 14, 10, 11, 13, 0, 11, 17, 13, 8, 11
      |4, 7, 10, 6, 13, 14, 1, 15, 11, 4, 8, 9, 4, 7, 8, 8, 11, 0, 12, 10, 3, 6
      |10, 13, 16, 12, 19, 20, 12, 21, 17, 15, 14, 15, 15, 13, 14, 4, 17, 12, 0, 16, 9, 12
      |6, 9, 8, 4, 11, 11, 10, 17, 9, 13, 10, 6, 13, 3, 4, 12, 13, 10, 16, 0, 7, 6
      |1, 4, 7, 3, 10, 11, 3, 12, 8, 6, 5, 6, 6, 4, 5, 5, 8, 3, 9, 7, 0, 3
      |4, 7, 10, 6, 11, 11, 5, 15, 11, 8, 8, 6, 8, 3, 4, 8, 11, 6, 12, 6, 3, 0
      |];

% Initial object distribution
S_init = [2, 0, 0, 0, 0, 0, 0, 0, 0, 0, 0, 0, 0, 1, 0, 0, 0, 1, 0, 0, 1, 0];

% Target nodes (1 if target, 0 otherwise)
T = [0, 0, 0, 0, 0, 0, 0, 0, 0, 1, 1, 1, 0, 0, 0, 0, 0, 0, 0, 1, 0, 1];

% Initial truck position (1-based indexing)
u = 18;

% --- DEBUG TRACE ---
% --- GENERATION TRACE (Backwards from Target) ---
% Initial distribution (all on targets): [0, 0, 0, 0, 0, 0, 0, 0, 0, 1, 1, 1, 0, 0, 0, 0, 0, 0, 0, 1, 0, 1]
% Step 1: Selected target node 22 (has 1 objects)
% Step 1: Moved object 22 -> 7
% Step 1: Distribution: [0, 0, 0, 0, 0, 0, 1, 0, 0, 1, 1, 1, 0, 0, 0, 0, 0, 0, 0, 1, 0, 0]
% Step 2: Selected target node 20 (has 1 objects)
% Step 2: Moved object 20 -> 14
% Step 2: Distribution: [0, 0, 0, 0, 0, 0, 1, 0, 0, 1, 1, 1, 0, 1, 0, 0, 0, 0, 0, 0, 0, 0]
% Step 3: Selected target node 10 (has 1 objects)
% Step 3: Moved object 10 -> 7
% Step 3: Distribution: [0, 0, 0, 0, 0, 0, 2, 0, 0, 0, 1, 1, 0, 1, 0, 0, 0, 0, 0, 0, 0, 0]
% Step 4: Selected target node 12 (has 1 objects)
% Step 4: Moved object 12 -> 14
% Step 4: Distribution: [0, 0, 0, 0, 0, 0, 2, 0, 0, 0, 1, 0, 0, 2, 0, 0, 0, 0, 0, 0, 0, 0]
% Step 5: Selected target node 11 (has 1 objects)
% Step 5: Moved object 11 -> 1
% Step 5: Distribution: [1, 0, 0, 0, 0, 0, 2, 0, 0, 0, 0, 0, 0, 2, 0, 0, 0, 0, 0, 0, 0, 0]
% Step 6: Selected non-target node 7 (has 2 objects)
% Step 6: Avoiding backtrack to node 10
% Step 6: Moved object 7 -> 18
% Step 6: Distribution: [1, 0, 0, 0, 0, 0, 1, 0, 0, 0, 0, 0, 0, 2, 0, 0, 0, 1, 0, 0, 0, 0]
% Step 7: Selected non-target node 14 (has 2 objects)
% Step 7: Avoiding backtrack to node 12
% Step 7: Moved object 14 -> 1
% Step 7: Distribution: [2, 0, 0, 0, 0, 0, 1, 0, 0, 0, 0, 0, 0, 1, 0, 0, 0, 1, 0, 0, 0, 0]
% Step 8: Selected non-target node 7 (has 1 objects)
% Step 8: Avoiding backtrack to node 10
% Step 8: Moved object 7 -> 21
% Step 8: Distribution: [2, 0, 0, 0, 0, 0, 0, 0, 0, 0, 0, 0, 0, 1, 0, 0, 0, 1, 0, 0, 1, 0]
% Truck starting position: 18
