% instance_n14_c0_k5_i20.dzn
% Generated instance for the Trucks problem
% N=14, h=3, k=5

% Number of nodes
N = 14;

% Number of objects
h = 3;

% Maximum plan length
%k = 5;

% Adjacency matrix (0-based internal, will be converted to 1-based)
Adj = [|0, 1, 1, 1, 0, 1, 0, 0, 1, 1, 1, 0, 0, 0
      |1, 0, 0, 0, 0, 0, 0, 0, 0, 0, 0, 0, 0, 0
      |1, 0, 0, 0, 0, 1, 0, 0, 0, 0, 0, 0, 0, 0
      |1, 0, 0, 0, 0, 0, 0, 0, 0, 0, 0, 0, 0, 1
      |0, 0, 0, 0, 0, 0, 0, 0, 1, 1, 0, 1, 0, 0
      |1, 0, 1, 0, 0, 0, 0, 1, 0, 0, 0, 0, 0, 0
      |0, 0, 0, 0, 0, 0, 0, 0, 0, 1, 0, 1, 0, 0
      |0, 0, 0, 0, 0, 1, 0, 0, 0, 0, 0, 1, 0, 0
      |1, 0, 0, 0, 1, 0, 0, 0, 0, 0, 0, 0, 0, 0
      |1, 0, 0, 0, 1, 0, 1, 0, 0, 0, 0, 0, 1, 0
      |1, 0, 0, 0, 0, 0, 0, 0, 0, 0, 0, 0, 0, 1
      |0, 0, 0, 0, 1, 0, 1, 1, 0, 0, 0, 0, 0, 0
      |0, 0, 0, 0, 0, 0, 0, 0, 0, 1, 0, 0, 0, 0
      |0, 0, 0, 1, 0, 0, 0, 0, 0, 0, 1, 0, 0, 0
      |];

% Weights matrix (edge weights)
% Weights = [|0, 5, 2, 5, 0, 3, 0, 0, 5, 2, 3, 0, 0, 0
%           |5, 0, 0, 0, 0, 0, 0, 0, 0, 0, 0, 0, 0, 0
%           |2, 0, 0, 0, 0, 5, 0, 0, 0, 0, 0, 0, 0, 0
%           |5, 0, 0, 0, 0, 0, 0, 0, 0, 0, 0, 0, 0, 5
%           |0, 0, 0, 0, 0, 0, 0, 0, 3, 2, 0, 1, 0, 0
%           |3, 0, 5, 0, 0, 0, 0, 2, 0, 0, 0, 0, 0, 0
%           |0, 0, 0, 0, 0, 0, 0, 0, 0, 1, 0, 3, 0, 0
%           |0, 0, 0, 0, 0, 2, 0, 0, 0, 0, 0, 4, 0, 0
%           |5, 0, 0, 0, 3, 0, 0, 0, 0, 0, 0, 0, 0, 0
%           |2, 0, 0, 0, 2, 0, 1, 0, 0, 0, 0, 0, 3, 0
%           |3, 0, 0, 0, 0, 0, 0, 0, 0, 0, 0, 0, 0, 3
%           |0, 0, 0, 0, 1, 0, 3, 4, 0, 0, 0, 0, 0, 0
%           |0, 0, 0, 0, 0, 0, 0, 0, 0, 3, 0, 0, 0, 0
%           |0, 0, 0, 5, 0, 0, 0, 0, 0, 0, 3, 0, 0, 0
%           |];

% Distance matrix
Dist = [|0, 5, 2, 5, 4, 3, 3, 5, 5, 2, 3, 5, 5, 6
      |5, 0, 7, 10, 9, 8, 8, 10, 10, 7, 8, 10, 10, 11
      |2, 7, 0, 7, 6, 5, 5, 7, 7, 4, 5, 7, 7, 8
      |5, 10, 7, 0, 9, 8, 8, 10, 10, 7, 8, 10, 10, 5
      |4, 9, 6, 9, 0, 7, 3, 5, 3, 2, 7, 1, 5, 10
      |3, 8, 5, 8, 7, 0, 6, 2, 8, 5, 6, 6, 8, 9
      |3, 8, 5, 8, 3, 6, 0, 7, 6, 1, 6, 3, 4, 9
      |5, 10, 7, 10, 5, 2, 7, 0, 8, 7, 8, 4, 10, 11
      |5, 10, 7, 10, 3, 8, 6, 8, 0, 5, 8, 4, 8, 11
      |2, 7, 4, 7, 2, 5, 1, 7, 5, 0, 5, 3, 3, 8
      |3, 8, 5, 8, 7, 6, 6, 8, 8, 5, 0, 8, 8, 3
      |5, 10, 7, 10, 1, 6, 3, 4, 4, 3, 8, 0, 6, 11
      |5, 10, 7, 10, 5, 8, 4, 10, 8, 3, 8, 6, 0, 11
      |6, 11, 8, 5, 10, 9, 9, 11, 11, 8, 3, 11, 11, 0
      |];

% Initial object distribution
S_init = [0, 1, 0, 0, 0, 0, 0, 1, 0, 0, 0, 0, 0, 1];

% Target nodes (1 if target, 0 otherwise)
T = [0, 0, 1, 0, 1, 0, 0, 0, 0, 0, 1, 0, 0, 0];

% Initial truck position (1-based indexing)
u = 7;

% --- DEBUG TRACE ---
% --- GENERATION TRACE (Backwards from Target) ---
% Initial distribution (all on targets): [0, 0, 1, 0, 1, 0, 0, 0, 0, 0, 1, 0, 0, 0]
% Step 1: Selected target node 11 (has 1 objects)
% Step 1: Moved object 11 -> 14
% Step 1: Distribution: [0, 0, 1, 0, 1, 0, 0, 0, 0, 0, 0, 0, 0, 1]
% Step 2: Selected target node 5 (has 1 objects)
% Step 2: Moved object 5 -> 12
% Step 2: Distribution: [0, 0, 1, 0, 0, 0, 0, 0, 0, 0, 0, 1, 0, 1]
% Step 3: Selected target node 3 (has 1 objects)
% Step 3: Moved object 3 -> 1
% Step 3: Distribution: [1, 0, 0, 0, 0, 0, 0, 0, 0, 0, 0, 1, 0, 1]
% Step 4: Selected non-target node 12 (has 1 objects)
% Step 4: Avoiding backtrack to node 5
% Step 4: Moved object 12 -> 8
% Step 4: Distribution: [1, 0, 0, 0, 0, 0, 0, 1, 0, 0, 0, 0, 0, 1]
% Step 5: Selected non-target node 1 (has 1 objects)
% Step 5: Avoiding backtrack to node 3
% Step 5: Moved object 1 -> 2
% Step 5: Distribution: [0, 1, 0, 0, 0, 0, 0, 1, 0, 0, 0, 0, 0, 1]
% Truck starting position: 7
