% instance_n22_c2_k11_i72.dzn
% Generated instance for the Trucks problem
% N=22, h=5, k=11

% Number of nodes
N = 22;

% Number of objects
h = 5;

% Maximum plan length
%k = 11;

% Adjacency matrix (0-based internal, will be converted to 1-based)
Adj = [|0, 0, 0, 0, 0, 0, 0, 1, 0, 0, 0, 0, 1, 0, 0, 0, 0, 0, 0, 0, 0, 0
      |0, 0, 0, 0, 0, 0, 0, 0, 0, 0, 0, 0, 0, 0, 1, 0, 0, 0, 0, 0, 0, 0
      |0, 0, 0, 0, 1, 0, 0, 0, 0, 0, 0, 0, 0, 0, 0, 0, 0, 0, 0, 0, 0, 0
      |0, 0, 0, 0, 0, 0, 0, 0, 0, 0, 0, 1, 1, 0, 0, 0, 0, 0, 0, 1, 0, 0
      |0, 0, 1, 0, 0, 1, 0, 0, 0, 0, 0, 0, 0, 1, 0, 0, 0, 1, 0, 1, 1, 0
      |0, 0, 0, 0, 1, 0, 1, 1, 0, 0, 0, 1, 0, 0, 0, 0, 0, 0, 0, 0, 0, 0
      |0, 0, 0, 0, 0, 1, 0, 0, 0, 0, 0, 0, 0, 0, 0, 0, 1, 0, 0, 0, 0, 0
      |1, 0, 0, 0, 0, 1, 0, 0, 0, 0, 0, 1, 0, 0, 1, 0, 0, 0, 1, 0, 0, 0
      |0, 0, 0, 0, 0, 0, 0, 0, 0, 1, 0, 0, 0, 0, 1, 0, 0, 0, 1, 0, 0, 0
      |0, 0, 0, 0, 0, 0, 0, 0, 1, 0, 0, 0, 0, 0, 0, 0, 0, 1, 0, 0, 0, 0
      |0, 0, 0, 0, 0, 0, 0, 0, 0, 0, 0, 0, 0, 0, 0, 0, 0, 0, 0, 1, 0, 0
      |0, 0, 0, 1, 0, 1, 0, 1, 0, 0, 0, 0, 0, 0, 0, 0, 0, 0, 0, 0, 0, 0
      |1, 0, 0, 1, 0, 0, 0, 0, 0, 0, 0, 0, 0, 0, 1, 0, 0, 1, 0, 0, 0, 1
      |0, 0, 0, 0, 1, 0, 0, 0, 0, 0, 0, 0, 0, 0, 0, 0, 0, 0, 0, 0, 0, 0
      |0, 1, 0, 0, 0, 0, 0, 1, 1, 0, 0, 0, 1, 0, 0, 0, 0, 0, 0, 0, 0, 0
      |0, 0, 0, 0, 0, 0, 0, 0, 0, 0, 0, 0, 0, 0, 0, 0, 0, 0, 0, 0, 0, 1
      |0, 0, 0, 0, 0, 0, 1, 0, 0, 0, 0, 0, 0, 0, 0, 0, 0, 0, 0, 0, 0, 0
      |0, 0, 0, 0, 1, 0, 0, 0, 0, 1, 0, 0, 1, 0, 0, 0, 0, 0, 0, 0, 0, 0
      |0, 0, 0, 0, 0, 0, 0, 1, 1, 0, 0, 0, 0, 0, 0, 0, 0, 0, 0, 0, 0, 0
      |0, 0, 0, 1, 1, 0, 0, 0, 0, 0, 1, 0, 0, 0, 0, 0, 0, 0, 0, 0, 1, 0
      |0, 0, 0, 0, 1, 0, 0, 0, 0, 0, 0, 0, 0, 0, 0, 0, 0, 0, 0, 1, 0, 0
      |0, 0, 0, 0, 0, 0, 0, 0, 0, 0, 0, 0, 1, 0, 0, 1, 0, 0, 0, 0, 0, 0
      |];

% Weights matrix (edge weights)
% Weights = [|0, 0, 0, 0, 0, 0, 0, 2, 0, 0, 0, 0, 5, 0, 0, 0, 0, 0, 0, 0, 0, 0
%           |0, 0, 0, 0, 0, 0, 0, 0, 0, 0, 0, 0, 0, 0, 3, 0, 0, 0, 0, 0, 0, 0
%           |0, 0, 0, 0, 5, 0, 0, 0, 0, 0, 0, 0, 0, 0, 0, 0, 0, 0, 0, 0, 0, 0
%           |0, 0, 0, 0, 0, 0, 0, 0, 0, 0, 0, 2, 5, 0, 0, 0, 0, 0, 0, 3, 0, 0
%           |0, 0, 5, 0, 0, 3, 0, 0, 0, 0, 0, 0, 0, 2, 0, 0, 0, 2, 0, 5, 1, 0
%           |0, 0, 0, 0, 3, 0, 1, 3, 0, 0, 0, 5, 0, 0, 0, 0, 0, 0, 0, 0, 0, 0
%           |0, 0, 0, 0, 0, 1, 0, 0, 0, 0, 0, 0, 0, 0, 0, 0, 1, 0, 0, 0, 0, 0
%           |2, 0, 0, 0, 0, 3, 0, 0, 0, 0, 0, 4, 0, 0, 3, 0, 0, 0, 4, 0, 0, 0
%           |0, 0, 0, 0, 0, 0, 0, 0, 0, 5, 0, 0, 0, 0, 4, 0, 0, 0, 1, 0, 0, 0
%           |0, 0, 0, 0, 0, 0, 0, 0, 5, 0, 0, 0, 0, 0, 0, 0, 0, 1, 0, 0, 0, 0
%           |0, 0, 0, 0, 0, 0, 0, 0, 0, 0, 0, 0, 0, 0, 0, 0, 0, 0, 0, 1, 0, 0
%           |0, 0, 0, 2, 0, 5, 0, 4, 0, 0, 0, 0, 0, 0, 0, 0, 0, 0, 0, 0, 0, 0
%           |5, 0, 0, 5, 0, 0, 0, 0, 0, 0, 0, 0, 0, 0, 5, 0, 0, 3, 0, 0, 0, 2
%           |0, 0, 0, 0, 2, 0, 0, 0, 0, 0, 0, 0, 0, 0, 0, 0, 0, 0, 0, 0, 0, 0
%           |0, 3, 0, 0, 0, 0, 0, 3, 4, 0, 0, 0, 5, 0, 0, 0, 0, 0, 0, 0, 0, 0
%           |0, 0, 0, 0, 0, 0, 0, 0, 0, 0, 0, 0, 0, 0, 0, 0, 0, 0, 0, 0, 0, 3
%           |0, 0, 0, 0, 0, 0, 1, 0, 0, 0, 0, 0, 0, 0, 0, 0, 0, 0, 0, 0, 0, 0
%           |0, 0, 0, 0, 2, 0, 0, 0, 0, 1, 0, 0, 3, 0, 0, 0, 0, 0, 0, 0, 0, 0
%           |0, 0, 0, 0, 0, 0, 0, 4, 1, 0, 0, 0, 0, 0, 0, 0, 0, 0, 0, 0, 0, 0
%           |0, 0, 0, 3, 5, 0, 0, 0, 0, 0, 1, 0, 0, 0, 0, 0, 0, 0, 0, 0, 5, 0
%           |0, 0, 0, 0, 1, 0, 0, 0, 0, 0, 0, 0, 0, 0, 0, 0, 0, 0, 0, 5, 0, 0
%           |0, 0, 0, 0, 0, 0, 0, 0, 0, 0, 0, 0, 2, 0, 0, 3, 0, 0, 0, 0, 0, 0
%           |];

% Distance matrix
Dist = [|0, 8, 13, 8, 8, 5, 6, 2, 7, 9, 12, 6, 5, 10, 5, 10, 7, 8, 6, 11, 9, 7
      |8, 0, 17, 12, 12, 9, 10, 6, 7, 12, 16, 10, 8, 14, 3, 13, 11, 11, 8, 15, 13, 10
      |13, 17, 0, 13, 5, 8, 9, 11, 13, 8, 11, 13, 10, 7, 14, 15, 10, 7, 14, 10, 6, 12
      |8, 12, 13, 0, 8, 7, 8, 6, 11, 9, 4, 2, 5, 10, 9, 10, 9, 8, 10, 3, 8, 7
      |8, 12, 5, 8, 0, 3, 4, 6, 8, 3, 6, 8, 5, 2, 9, 10, 5, 2, 9, 5, 1, 7
      |5, 9, 8, 7, 3, 0, 1, 3, 8, 6, 9, 5, 8, 5, 6, 13, 2, 5, 7, 8, 4, 10
      |6, 10, 9, 8, 4, 1, 0, 4, 9, 7, 10, 6, 9, 6, 7, 14, 1, 6, 8, 9, 5, 11
      |2, 6, 11, 6, 6, 3, 4, 0, 5, 9, 10, 4, 7, 8, 3, 12, 5, 8, 4, 9, 7, 9
      |7, 7, 13, 11, 8, 8, 9, 5, 0, 5, 14, 9, 9, 10, 4, 14, 10, 6, 1, 13, 9, 11
      |9, 12, 8, 9, 3, 6, 7, 9, 5, 0, 9, 11, 4, 5, 9, 9, 8, 1, 6, 8, 4, 6
      |12, 16, 11, 4, 6, 9, 10, 10, 14, 9, 0, 6, 9, 8, 13, 14, 11, 8, 14, 1, 6, 11
      |6, 10, 13, 2, 8, 5, 6, 4, 9, 11, 6, 0, 7, 10, 7, 12, 7, 10, 8, 5, 9, 9
      |5, 8, 10, 5, 5, 8, 9, 7, 9, 4, 9, 7, 0, 7, 5, 5, 10, 3, 10, 8, 6, 2
      |10, 14, 7, 10, 2, 5, 6, 8, 10, 5, 8, 10, 7, 0, 11, 12, 7, 4, 11, 7, 3, 9
      |5, 3, 14, 9, 9, 6, 7, 3, 4, 9, 13, 7, 5, 11, 0, 10, 8, 8, 5, 12, 10, 7
      |10, 13, 15, 10, 10, 13, 14, 12, 14, 9, 14, 12, 5, 12, 10, 0, 15, 8, 15, 13, 11, 3
      |7, 11, 10, 9, 5, 2, 1, 5, 10, 8, 11, 7, 10, 7, 8, 15, 0, 7, 9, 10, 6, 12
      |8, 11, 7, 8, 2, 5, 6, 8, 6, 1, 8, 10, 3, 4, 8, 8, 7, 0, 7, 7, 3, 5
      |6, 8, 14, 10, 9, 7, 8, 4, 1, 6, 14, 8, 10, 11, 5, 15, 9, 7, 0, 13, 10, 12
      |11, 15, 10, 3, 5, 8, 9, 9, 13, 8, 1, 5, 8, 7, 12, 13, 10, 7, 13, 0, 5, 10
      |9, 13, 6, 8, 1, 4, 5, 7, 9, 4, 6, 9, 6, 3, 10, 11, 6, 3, 10, 5, 0, 8
      |7, 10, 12, 7, 7, 10, 11, 9, 11, 6, 11, 9, 2, 9, 7, 3, 12, 5, 12, 10, 8, 0
      |];

% Initial object distribution
S_init = [0, 0, 0, 0, 0, 0, 0, 1, 0, 1, 0, 0, 0, 0, 2, 0, 0, 0, 0, 1, 0, 0];

% Target nodes (1 if target, 0 otherwise)
T = [0, 0, 0, 0, 0, 0, 0, 0, 1, 0, 0, 0, 0, 0, 0, 1, 0, 1, 0, 0, 0, 0];

% Initial truck position (1-based indexing)
u = 21;

% --- DEBUG TRACE ---
% --- GENERATION TRACE (Backwards from Target) ---
% Initial distribution (all on targets): [0, 0, 0, 0, 0, 0, 0, 0, 2, 0, 0, 0, 0, 0, 0, 2, 0, 1, 0, 0, 0, 0]
% Step 1: Selected target node 16 (has 2 objects)
% Step 1: Moved object 16 -> 22
% Step 1: Distribution: [0, 0, 0, 0, 0, 0, 0, 0, 2, 0, 0, 0, 0, 0, 0, 1, 0, 1, 0, 0, 0, 1]
% Step 2: Selected target node 18 (has 1 objects)
% Step 2: Moved object 18 -> 10
% Step 2: Distribution: [0, 0, 0, 0, 0, 0, 0, 0, 2, 1, 0, 0, 0, 0, 0, 1, 0, 0, 0, 0, 0, 1]
% Step 3: Selected target node 9 (has 2 objects)
% Step 3: Moved object 9 -> 19
% Step 3: Distribution: [0, 0, 0, 0, 0, 0, 0, 0, 1, 1, 0, 0, 0, 0, 0, 1, 0, 0, 1, 0, 0, 1]
% Step 4: Selected target node 9 (has 1 objects)
% Step 4: Moved object 9 -> 15
% Step 4: Distribution: [0, 0, 0, 0, 0, 0, 0, 0, 0, 1, 0, 0, 0, 0, 1, 1, 0, 0, 1, 0, 0, 1]
% Step 5: Selected target node 16 (has 1 objects)
% Step 5: Moved object 16 -> 22
% Step 5: Distribution: [0, 0, 0, 0, 0, 0, 0, 0, 0, 1, 0, 0, 0, 0, 1, 0, 0, 0, 1, 0, 0, 2]
% Step 6: Selected non-target node 22 (has 2 objects)
% Step 6: Avoiding backtrack to node 16
% Step 6: Moved object 22 -> 13
% Step 6: Distribution: [0, 0, 0, 0, 0, 0, 0, 0, 0, 1, 0, 0, 1, 0, 1, 0, 0, 0, 1, 0, 0, 1]
% Step 7: Selected non-target node 13 (has 1 objects)
% Step 7: Avoiding backtrack to node 22
% Step 7: Moved object 13 -> 15
% Step 7: Distribution: [0, 0, 0, 0, 0, 0, 0, 0, 0, 1, 0, 0, 0, 0, 2, 0, 0, 0, 1, 0, 0, 1]
% Step 8: Selected non-target node 19 (has 1 objects)
% Step 8: Avoiding backtrack to node 9
% Step 8: Moved object 19 -> 8
% Step 8: Distribution: [0, 0, 0, 0, 0, 0, 0, 1, 0, 1, 0, 0, 0, 0, 2, 0, 0, 0, 0, 0, 0, 1]
% Step 9: Selected non-target node 22 (has 1 objects)
% Step 9: Avoiding backtrack to node 16
% Step 9: Moved object 22 -> 13
% Step 9: Distribution: [0, 0, 0, 0, 0, 0, 0, 1, 0, 1, 0, 0, 1, 0, 2, 0, 0, 0, 0, 0, 0, 0]
% Step 10: Selected non-target node 13 (has 1 objects)
% Step 10: Avoiding backtrack to node 22
% Step 10: Moved object 13 -> 4
% Step 10: Distribution: [0, 0, 0, 1, 0, 0, 0, 1, 0, 1, 0, 0, 0, 0, 2, 0, 0, 0, 0, 0, 0, 0]
% Step 11: Selected non-target node 10 (has 1 objects)
% Step 11: Selected non-target node 4 (has 1 objects)
% Step 11: Avoiding backtrack to node 13
% Step 11: Moved object 4 -> 20
% Step 11: Distribution: [0, 0, 0, 0, 0, 0, 0, 1, 0, 1, 0, 0, 0, 0, 2, 0, 0, 0, 0, 1, 0, 0]
% Truck starting position: 21
