% instance_n26_c3_k5_i95.dzn
% Generated instance for the Trucks problem
% N=26, h=6, k=5

% Number of nodes
N = 26;

% Number of objects
h = 6;

% Maximum plan length
%k = 5;

% Adjacency matrix (0-based internal, will be converted to 1-based)
Adj = [|0, 1, 0, 0, 0, 0, 1, 0, 0, 0, 0, 0, 0, 0, 0, 0, 0, 0, 0, 0, 0, 1, 0, 1, 1, 0
      |1, 0, 1, 1, 0, 1, 0, 0, 0, 0, 0, 0, 0, 0, 0, 0, 0, 0, 0, 0, 0, 0, 0, 0, 0, 0
      |0, 1, 0, 0, 0, 0, 0, 1, 0, 0, 1, 0, 0, 0, 0, 0, 0, 0, 0, 0, 0, 0, 0, 0, 0, 0
      |0, 1, 0, 0, 0, 0, 0, 0, 0, 0, 0, 0, 1, 0, 0, 0, 0, 1, 0, 0, 0, 0, 0, 0, 0, 0
      |0, 0, 0, 0, 0, 0, 1, 0, 0, 0, 0, 0, 0, 0, 0, 0, 0, 0, 0, 0, 0, 0, 0, 0, 0, 0
      |0, 1, 0, 0, 0, 0, 0, 0, 0, 0, 0, 0, 0, 0, 0, 0, 0, 0, 0, 0, 0, 0, 0, 0, 0, 1
      |1, 0, 0, 0, 1, 0, 0, 0, 0, 0, 0, 0, 1, 0, 1, 1, 0, 0, 0, 0, 1, 0, 0, 0, 0, 0
      |0, 0, 1, 0, 0, 0, 0, 0, 0, 0, 0, 0, 0, 0, 0, 0, 0, 0, 0, 1, 0, 0, 0, 0, 0, 0
      |0, 0, 0, 0, 0, 0, 0, 0, 0, 0, 0, 0, 0, 0, 0, 0, 0, 0, 0, 0, 0, 0, 0, 0, 0, 1
      |0, 0, 0, 0, 0, 0, 0, 0, 0, 0, 1, 0, 0, 0, 0, 0, 0, 0, 0, 0, 0, 0, 0, 0, 0, 0
      |0, 0, 1, 0, 0, 0, 0, 0, 0, 1, 0, 0, 0, 0, 0, 0, 0, 0, 0, 1, 0, 0, 0, 0, 0, 0
      |0, 0, 0, 0, 0, 0, 0, 0, 0, 0, 0, 0, 0, 0, 0, 0, 0, 0, 0, 0, 0, 0, 1, 0, 0, 0
      |0, 0, 0, 1, 0, 0, 1, 0, 0, 0, 0, 0, 0, 0, 0, 0, 0, 0, 0, 0, 0, 0, 0, 0, 1, 0
      |0, 0, 0, 0, 0, 0, 0, 0, 0, 0, 0, 0, 0, 0, 0, 1, 0, 0, 0, 0, 1, 0, 0, 0, 0, 0
      |0, 0, 0, 0, 0, 0, 1, 0, 0, 0, 0, 0, 0, 0, 0, 0, 0, 1, 1, 0, 0, 0, 0, 0, 0, 0
      |0, 0, 0, 0, 0, 0, 1, 0, 0, 0, 0, 0, 0, 1, 0, 0, 0, 0, 0, 0, 0, 0, 0, 0, 0, 0
      |0, 0, 0, 0, 0, 0, 0, 0, 0, 0, 0, 0, 0, 0, 0, 0, 0, 0, 0, 0, 0, 0, 0, 0, 1, 0
      |0, 0, 0, 1, 0, 0, 0, 0, 0, 0, 0, 0, 0, 0, 1, 0, 0, 0, 0, 1, 0, 0, 0, 0, 0, 1
      |0, 0, 0, 0, 0, 0, 0, 0, 0, 0, 0, 0, 0, 0, 1, 0, 0, 0, 0, 1, 0, 0, 0, 0, 0, 0
      |0, 0, 0, 0, 0, 0, 0, 1, 0, 0, 1, 0, 0, 0, 0, 0, 0, 1, 1, 0, 0, 0, 0, 0, 0, 0
      |0, 0, 0, 0, 0, 0, 1, 0, 0, 0, 0, 0, 0, 1, 0, 0, 0, 0, 0, 0, 0, 0, 0, 0, 0, 0
      |1, 0, 0, 0, 0, 0, 0, 0, 0, 0, 0, 0, 0, 0, 0, 0, 0, 0, 0, 0, 0, 0, 0, 0, 0, 0
      |0, 0, 0, 0, 0, 0, 0, 0, 0, 0, 0, 1, 0, 0, 0, 0, 0, 0, 0, 0, 0, 0, 0, 1, 1, 0
      |1, 0, 0, 0, 0, 0, 0, 0, 0, 0, 0, 0, 0, 0, 0, 0, 0, 0, 0, 0, 0, 0, 1, 0, 0, 0
      |1, 0, 0, 0, 0, 0, 0, 0, 0, 0, 0, 0, 1, 0, 0, 0, 1, 0, 0, 0, 0, 0, 1, 0, 0, 0
      |0, 0, 0, 0, 0, 1, 0, 0, 1, 0, 0, 0, 0, 0, 0, 0, 0, 1, 0, 0, 0, 0, 0, 0, 0, 0
      |];

% Weights matrix (edge weights)
% Weights = [|0, 2, 0, 0, 0, 0, 2, 0, 0, 0, 0, 0, 0, 0, 0, 0, 0, 0, 0, 0, 0, 3, 0, 4, 1, 0
%           |2, 0, 2, 1, 0, 2, 0, 0, 0, 0, 0, 0, 0, 0, 0, 0, 0, 0, 0, 0, 0, 0, 0, 0, 0, 0
%           |0, 2, 0, 0, 0, 0, 0, 3, 0, 0, 2, 0, 0, 0, 0, 0, 0, 0, 0, 0, 0, 0, 0, 0, 0, 0
%           |0, 1, 0, 0, 0, 0, 0, 0, 0, 0, 0, 0, 5, 0, 0, 0, 0, 4, 0, 0, 0, 0, 0, 0, 0, 0
%           |0, 0, 0, 0, 0, 0, 3, 0, 0, 0, 0, 0, 0, 0, 0, 0, 0, 0, 0, 0, 0, 0, 0, 0, 0, 0
%           |0, 2, 0, 0, 0, 0, 0, 0, 0, 0, 0, 0, 0, 0, 0, 0, 0, 0, 0, 0, 0, 0, 0, 0, 0, 1
%           |2, 0, 0, 0, 3, 0, 0, 0, 0, 0, 0, 0, 3, 0, 3, 5, 0, 0, 0, 0, 3, 0, 0, 0, 0, 0
%           |0, 0, 3, 0, 0, 0, 0, 0, 0, 0, 0, 0, 0, 0, 0, 0, 0, 0, 0, 1, 0, 0, 0, 0, 0, 0
%           |0, 0, 0, 0, 0, 0, 0, 0, 0, 0, 0, 0, 0, 0, 0, 0, 0, 0, 0, 0, 0, 0, 0, 0, 0, 3
%           |0, 0, 0, 0, 0, 0, 0, 0, 0, 0, 5, 0, 0, 0, 0, 0, 0, 0, 0, 0, 0, 0, 0, 0, 0, 0
%           |0, 0, 2, 0, 0, 0, 0, 0, 0, 5, 0, 0, 0, 0, 0, 0, 0, 0, 0, 2, 0, 0, 0, 0, 0, 0
%           |0, 0, 0, 0, 0, 0, 0, 0, 0, 0, 0, 0, 0, 0, 0, 0, 0, 0, 0, 0, 0, 0, 2, 0, 0, 0
%           |0, 0, 0, 5, 0, 0, 3, 0, 0, 0, 0, 0, 0, 0, 0, 0, 0, 0, 0, 0, 0, 0, 0, 0, 2, 0
%           |0, 0, 0, 0, 0, 0, 0, 0, 0, 0, 0, 0, 0, 0, 0, 1, 0, 0, 0, 0, 5, 0, 0, 0, 0, 0
%           |0, 0, 0, 0, 0, 0, 3, 0, 0, 0, 0, 0, 0, 0, 0, 0, 0, 4, 4, 0, 0, 0, 0, 0, 0, 0
%           |0, 0, 0, 0, 0, 0, 5, 0, 0, 0, 0, 0, 0, 1, 0, 0, 0, 0, 0, 0, 0, 0, 0, 0, 0, 0
%           |0, 0, 0, 0, 0, 0, 0, 0, 0, 0, 0, 0, 0, 0, 0, 0, 0, 0, 0, 0, 0, 0, 0, 0, 3, 0
%           |0, 0, 0, 4, 0, 0, 0, 0, 0, 0, 0, 0, 0, 0, 4, 0, 0, 0, 0, 1, 0, 0, 0, 0, 0, 2
%           |0, 0, 0, 0, 0, 0, 0, 0, 0, 0, 0, 0, 0, 0, 4, 0, 0, 0, 0, 1, 0, 0, 0, 0, 0, 0
%           |0, 0, 0, 0, 0, 0, 0, 1, 0, 0, 2, 0, 0, 0, 0, 0, 0, 1, 1, 0, 0, 0, 0, 0, 0, 0
%           |0, 0, 0, 0, 0, 0, 3, 0, 0, 0, 0, 0, 0, 5, 0, 0, 0, 0, 0, 0, 0, 0, 0, 0, 0, 0
%           |3, 0, 0, 0, 0, 0, 0, 0, 0, 0, 0, 0, 0, 0, 0, 0, 0, 0, 0, 0, 0, 0, 0, 0, 0, 0
%           |0, 0, 0, 0, 0, 0, 0, 0, 0, 0, 0, 2, 0, 0, 0, 0, 0, 0, 0, 0, 0, 0, 0, 2, 4, 0
%           |4, 0, 0, 0, 0, 0, 0, 0, 0, 0, 0, 0, 0, 0, 0, 0, 0, 0, 0, 0, 0, 0, 2, 0, 0, 0
%           |1, 0, 0, 0, 0, 0, 0, 0, 0, 0, 0, 0, 2, 0, 0, 0, 3, 0, 0, 0, 0, 0, 4, 0, 0, 0
%           |0, 0, 0, 0, 0, 1, 0, 0, 3, 0, 0, 0, 0, 0, 0, 0, 0, 2, 0, 0, 0, 0, 0, 0, 0, 0
%           |];

% Distance matrix
Dist = [|0, 2, 4, 3, 5, 4, 2, 7, 8, 11, 6, 7, 3, 8, 5, 7, 4, 7, 9, 8, 5, 3, 5, 4, 1, 5
      |2, 0, 2, 1, 7, 2, 4, 5, 6, 9, 4, 9, 5, 10, 7, 9, 6, 5, 7, 6, 7, 5, 7, 6, 3, 3
      |4, 2, 0, 3, 9, 4, 6, 3, 8, 7, 2, 11, 7, 12, 9, 11, 8, 5, 5, 4, 9, 7, 9, 8, 5, 5
      |3, 1, 3, 0, 8, 3, 5, 6, 7, 10, 5, 10, 5, 11, 8, 10, 7, 4, 6, 5, 8, 6, 8, 7, 4, 4
      |5, 7, 9, 8, 0, 9, 3, 12, 13, 16, 11, 12, 6, 9, 6, 8, 9, 10, 10, 11, 6, 8, 10, 9, 6, 10
      |4, 2, 4, 3, 9, 0, 6, 5, 4, 11, 6, 11, 7, 12, 7, 11, 8, 3, 5, 4, 9, 7, 9, 8, 5, 1
      |2, 4, 6, 5, 3, 6, 0, 9, 10, 13, 8, 9, 3, 6, 3, 5, 6, 7, 7, 8, 3, 5, 7, 6, 3, 7
      |7, 5, 3, 6, 12, 5, 9, 0, 7, 8, 3, 14, 10, 15, 6, 14, 11, 2, 2, 1, 12, 10, 12, 11, 8, 4
      |8, 6, 8, 7, 13, 4, 10, 7, 0, 13, 8, 15, 11, 16, 9, 15, 12, 5, 7, 6, 13, 11, 13, 12, 9, 3
      |11, 9, 7, 10, 16, 11, 13, 8, 13, 0, 5, 18, 14, 19, 12, 18, 15, 8, 8, 7, 16, 14, 16, 15, 12, 10
      |6, 4, 2, 5, 11, 6, 8, 3, 8, 5, 0, 13, 9, 14, 7, 13, 10, 3, 3, 2, 11, 9, 11, 10, 7, 5
      |7, 9, 11, 10, 12, 11, 9, 14, 15, 18, 13, 0, 8, 15, 12, 14, 9, 14, 16, 15, 12, 10, 2, 4, 6, 12
      |3, 5, 7, 5, 6, 7, 3, 10, 11, 14, 9, 8, 0, 9, 6, 8, 5, 9, 10, 10, 6, 6, 6, 7, 2, 8
      |8, 10, 12, 11, 9, 12, 6, 15, 16, 19, 14, 15, 9, 0, 9, 1, 12, 13, 13, 14, 5, 11, 13, 12, 9, 13
      |5, 7, 9, 8, 6, 7, 3, 6, 9, 12, 7, 12, 6, 9, 0, 8, 9, 4, 4, 5, 6, 8, 10, 9, 6, 6
      |7, 9, 11, 10, 8, 11, 5, 14, 15, 18, 13, 14, 8, 1, 8, 0, 11, 12, 12, 13, 6, 10, 12, 11, 8, 12
      |4, 6, 8, 7, 9, 8, 6, 11, 12, 15, 10, 9, 5, 12, 9, 11, 0, 11, 13, 12, 9, 7, 7, 8, 3, 9
      |7, 5, 5, 4, 10, 3, 7, 2, 5, 8, 3, 14, 9, 13, 4, 12, 11, 0, 2, 1, 10, 10, 12, 11, 8, 2
      |9, 7, 5, 6, 10, 5, 7, 2, 7, 8, 3, 16, 10, 13, 4, 12, 13, 2, 0, 1, 10, 12, 14, 13, 10, 4
      |8, 6, 4, 5, 11, 4, 8, 1, 6, 7, 2, 15, 10, 14, 5, 13, 12, 1, 1, 0, 11, 11, 13, 12, 9, 3
      |5, 7, 9, 8, 6, 9, 3, 12, 13, 16, 11, 12, 6, 5, 6, 6, 9, 10, 10, 11, 0, 8, 10, 9, 6, 10
      |3, 5, 7, 6, 8, 7, 5, 10, 11, 14, 9, 10, 6, 11, 8, 10, 7, 10, 12, 11, 8, 0, 8, 7, 4, 8
      |5, 7, 9, 8, 10, 9, 7, 12, 13, 16, 11, 2, 6, 13, 10, 12, 7, 12, 14, 13, 10, 8, 0, 2, 4, 10
      |4, 6, 8, 7, 9, 8, 6, 11, 12, 15, 10, 4, 7, 12, 9, 11, 8, 11, 13, 12, 9, 7, 2, 0, 5, 9
      |1, 3, 5, 4, 6, 5, 3, 8, 9, 12, 7, 6, 2, 9, 6, 8, 3, 8, 10, 9, 6, 4, 4, 5, 0, 6
      |5, 3, 5, 4, 10, 1, 7, 4, 3, 10, 5, 12, 8, 13, 6, 12, 9, 2, 4, 3, 10, 8, 10, 9, 6, 0
      |];

% Initial object distribution
S_init = [0, 1, 0, 1, 0, 0, 0, 0, 0, 0, 0, 0, 0, 1, 0, 0, 0, 1, 0, 1, 0, 0, 1, 0, 0, 0];

% Target nodes (1 if target, 0 otherwise)
T = [0, 1, 0, 0, 0, 0, 0, 0, 0, 0, 0, 0, 0, 0, 1, 0, 0, 0, 1, 0, 1, 0, 0, 0, 1, 0];

% Initial truck position (1-based indexing)
u = 7;

% --- DEBUG TRACE ---
% --- GENERATION TRACE (Backwards from Target) ---
% Initial distribution (all on targets): [0, 2, 0, 0, 0, 0, 0, 0, 0, 0, 0, 0, 0, 0, 1, 0, 0, 0, 1, 0, 1, 0, 0, 0, 1, 0]
% Step 1: Selected target node 19 (has 1 objects)
% Step 1: Moved object 19 -> 20
% Step 1: Distribution: [0, 2, 0, 0, 0, 0, 0, 0, 0, 0, 0, 0, 0, 0, 1, 0, 0, 0, 0, 1, 1, 0, 0, 0, 1, 0]
% Step 2: Selected target node 2 (has 2 objects)
% Step 2: Moved object 2 -> 4
% Step 2: Distribution: [0, 1, 0, 1, 0, 0, 0, 0, 0, 0, 0, 0, 0, 0, 1, 0, 0, 0, 0, 1, 1, 0, 0, 0, 1, 0]
% Step 3: Selected target node 21 (has 1 objects)
% Step 3: Moved object 21 -> 14
% Step 3: Distribution: [0, 1, 0, 1, 0, 0, 0, 0, 0, 0, 0, 0, 0, 1, 1, 0, 0, 0, 0, 1, 0, 0, 0, 0, 1, 0]
% Step 4: Selected target node 15 (has 1 objects)
% Step 4: Moved object 15 -> 18
% Step 4: Distribution: [0, 1, 0, 1, 0, 0, 0, 0, 0, 0, 0, 0, 0, 1, 0, 0, 0, 1, 0, 1, 0, 0, 0, 0, 1, 0]
% Step 5: Selected target node 25 (has 1 objects)
% Step 5: Moved object 25 -> 23
% Step 5: Distribution: [0, 1, 0, 1, 0, 0, 0, 0, 0, 0, 0, 0, 0, 1, 0, 0, 0, 1, 0, 1, 0, 0, 1, 0, 0, 0]
% Truck starting position: 7
