% instance_n26_c3_k11_i97.dzn
% Generated instance for the Trucks problem
% N=26, h=6, k=11

% Number of nodes
N = 26;

% Number of objects
h = 6;

% Maximum plan length
%k = 11;

% Adjacency matrix (0-based internal, will be converted to 1-based)
Adj = [|0, 0, 0, 1, 0, 0, 1, 0, 0, 0, 0, 0, 0, 0, 1, 0, 1, 1, 0, 0, 0, 0, 0, 1, 0, 0
      |0, 0, 0, 0, 0, 0, 0, 0, 0, 0, 0, 0, 0, 0, 0, 0, 0, 0, 0, 0, 0, 0, 0, 0, 0, 1
      |0, 0, 0, 1, 1, 0, 0, 0, 0, 0, 0, 0, 0, 0, 0, 0, 0, 0, 0, 0, 0, 1, 0, 0, 0, 0
      |1, 0, 1, 0, 0, 0, 0, 0, 0, 0, 0, 0, 0, 1, 0, 0, 0, 0, 0, 0, 0, 0, 0, 0, 0, 1
      |0, 0, 1, 0, 0, 1, 0, 0, 0, 0, 0, 0, 0, 0, 0, 0, 0, 0, 0, 0, 0, 0, 0, 1, 1, 0
      |0, 0, 0, 0, 1, 0, 0, 0, 0, 0, 1, 0, 0, 0, 0, 0, 0, 0, 0, 0, 0, 0, 0, 0, 0, 0
      |1, 0, 0, 0, 0, 0, 0, 0, 0, 1, 0, 0, 0, 0, 0, 0, 0, 0, 0, 0, 1, 0, 0, 0, 0, 0
      |0, 0, 0, 0, 0, 0, 0, 0, 0, 1, 0, 0, 1, 0, 0, 0, 1, 0, 1, 0, 0, 0, 0, 0, 0, 0
      |0, 0, 0, 0, 0, 0, 0, 0, 0, 0, 1, 1, 0, 0, 0, 0, 1, 0, 0, 1, 0, 0, 0, 0, 0, 0
      |0, 0, 0, 0, 0, 0, 1, 1, 0, 0, 0, 0, 0, 0, 0, 0, 0, 0, 0, 0, 0, 0, 0, 0, 0, 0
      |0, 0, 0, 0, 0, 1, 0, 0, 1, 0, 0, 0, 0, 0, 0, 0, 0, 0, 0, 0, 0, 1, 0, 0, 0, 0
      |0, 0, 0, 0, 0, 0, 0, 0, 1, 0, 0, 0, 0, 0, 0, 0, 0, 0, 0, 0, 0, 0, 0, 0, 0, 0
      |0, 0, 0, 0, 0, 0, 0, 1, 0, 0, 0, 0, 0, 0, 1, 0, 0, 0, 0, 0, 0, 0, 0, 0, 0, 0
      |0, 0, 0, 1, 0, 0, 0, 0, 0, 0, 0, 0, 0, 0, 0, 0, 0, 0, 0, 0, 0, 0, 0, 0, 0, 0
      |1, 0, 0, 0, 0, 0, 0, 0, 0, 0, 0, 0, 1, 0, 0, 0, 1, 0, 0, 0, 0, 1, 0, 0, 0, 0
      |0, 0, 0, 0, 0, 0, 0, 0, 0, 0, 0, 0, 0, 0, 0, 0, 0, 0, 0, 0, 0, 0, 0, 1, 0, 0
      |1, 0, 0, 0, 0, 0, 0, 1, 1, 0, 0, 0, 0, 0, 1, 0, 0, 0, 0, 0, 0, 0, 0, 0, 0, 0
      |1, 0, 0, 0, 0, 0, 0, 0, 0, 0, 0, 0, 0, 0, 0, 0, 0, 0, 0, 0, 0, 0, 1, 0, 0, 0
      |0, 0, 0, 0, 0, 0, 0, 1, 0, 0, 0, 0, 0, 0, 0, 0, 0, 0, 0, 0, 0, 0, 0, 0, 0, 0
      |0, 0, 0, 0, 0, 0, 0, 0, 1, 0, 0, 0, 0, 0, 0, 0, 0, 0, 0, 0, 0, 0, 0, 0, 0, 0
      |0, 0, 0, 0, 0, 0, 1, 0, 0, 0, 0, 0, 0, 0, 0, 0, 0, 0, 0, 0, 0, 0, 0, 0, 0, 0
      |0, 0, 1, 0, 0, 0, 0, 0, 0, 0, 1, 0, 0, 0, 1, 0, 0, 0, 0, 0, 0, 0, 0, 1, 0, 0
      |0, 0, 0, 0, 0, 0, 0, 0, 0, 0, 0, 0, 0, 0, 0, 0, 0, 1, 0, 0, 0, 0, 0, 1, 1, 0
      |1, 0, 0, 0, 1, 0, 0, 0, 0, 0, 0, 0, 0, 0, 0, 1, 0, 0, 0, 0, 0, 1, 1, 0, 0, 0
      |0, 0, 0, 0, 1, 0, 0, 0, 0, 0, 0, 0, 0, 0, 0, 0, 0, 0, 0, 0, 0, 0, 1, 0, 0, 0
      |0, 1, 0, 1, 0, 0, 0, 0, 0, 0, 0, 0, 0, 0, 0, 0, 0, 0, 0, 0, 0, 0, 0, 0, 0, 0
      |];

% Weights matrix (edge weights)
% Weights = [|0, 0, 0, 2, 0, 0, 4, 0, 0, 0, 0, 0, 0, 0, 3, 0, 3, 2, 0, 0, 0, 0, 0, 4, 0, 0
%           |0, 0, 0, 0, 0, 0, 0, 0, 0, 0, 0, 0, 0, 0, 0, 0, 0, 0, 0, 0, 0, 0, 0, 0, 0, 5
%           |0, 0, 0, 4, 3, 0, 0, 0, 0, 0, 0, 0, 0, 0, 0, 0, 0, 0, 0, 0, 0, 4, 0, 0, 0, 0
%           |2, 0, 4, 0, 0, 0, 0, 0, 0, 0, 0, 0, 0, 1, 0, 0, 0, 0, 0, 0, 0, 0, 0, 0, 0, 2
%           |0, 0, 3, 0, 0, 4, 0, 0, 0, 0, 0, 0, 0, 0, 0, 0, 0, 0, 0, 0, 0, 0, 0, 5, 1, 0
%           |0, 0, 0, 0, 4, 0, 0, 0, 0, 0, 5, 0, 0, 0, 0, 0, 0, 0, 0, 0, 0, 0, 0, 0, 0, 0
%           |4, 0, 0, 0, 0, 0, 0, 0, 0, 4, 0, 0, 0, 0, 0, 0, 0, 0, 0, 0, 5, 0, 0, 0, 0, 0
%           |0, 0, 0, 0, 0, 0, 0, 0, 0, 2, 0, 0, 1, 0, 0, 0, 1, 0, 4, 0, 0, 0, 0, 0, 0, 0
%           |0, 0, 0, 0, 0, 0, 0, 0, 0, 0, 5, 4, 0, 0, 0, 0, 3, 0, 0, 1, 0, 0, 0, 0, 0, 0
%           |0, 0, 0, 0, 0, 0, 4, 2, 0, 0, 0, 0, 0, 0, 0, 0, 0, 0, 0, 0, 0, 0, 0, 0, 0, 0
%           |0, 0, 0, 0, 0, 5, 0, 0, 5, 0, 0, 0, 0, 0, 0, 0, 0, 0, 0, 0, 0, 4, 0, 0, 0, 0
%           |0, 0, 0, 0, 0, 0, 0, 0, 4, 0, 0, 0, 0, 0, 0, 0, 0, 0, 0, 0, 0, 0, 0, 0, 0, 0
%           |0, 0, 0, 0, 0, 0, 0, 1, 0, 0, 0, 0, 0, 0, 5, 0, 0, 0, 0, 0, 0, 0, 0, 0, 0, 0
%           |0, 0, 0, 1, 0, 0, 0, 0, 0, 0, 0, 0, 0, 0, 0, 0, 0, 0, 0, 0, 0, 0, 0, 0, 0, 0
%           |3, 0, 0, 0, 0, 0, 0, 0, 0, 0, 0, 0, 5, 0, 0, 0, 2, 0, 0, 0, 0, 4, 0, 0, 0, 0
%           |0, 0, 0, 0, 0, 0, 0, 0, 0, 0, 0, 0, 0, 0, 0, 0, 0, 0, 0, 0, 0, 0, 0, 4, 0, 0
%           |3, 0, 0, 0, 0, 0, 0, 1, 3, 0, 0, 0, 0, 0, 2, 0, 0, 0, 0, 0, 0, 0, 0, 0, 0, 0
%           |2, 0, 0, 0, 0, 0, 0, 0, 0, 0, 0, 0, 0, 0, 0, 0, 0, 0, 0, 0, 0, 0, 2, 0, 0, 0
%           |0, 0, 0, 0, 0, 0, 0, 4, 0, 0, 0, 0, 0, 0, 0, 0, 0, 0, 0, 0, 0, 0, 0, 0, 0, 0
%           |0, 0, 0, 0, 0, 0, 0, 0, 1, 0, 0, 0, 0, 0, 0, 0, 0, 0, 0, 0, 0, 0, 0, 0, 0, 0
%           |0, 0, 0, 0, 0, 0, 5, 0, 0, 0, 0, 0, 0, 0, 0, 0, 0, 0, 0, 0, 0, 0, 0, 0, 0, 0
%           |0, 0, 4, 0, 0, 0, 0, 0, 0, 0, 4, 0, 0, 0, 4, 0, 0, 0, 0, 0, 0, 0, 0, 1, 0, 0
%           |0, 0, 0, 0, 0, 0, 0, 0, 0, 0, 0, 0, 0, 0, 0, 0, 0, 2, 0, 0, 0, 0, 0, 2, 3, 0
%           |4, 0, 0, 0, 5, 0, 0, 0, 0, 0, 0, 0, 0, 0, 0, 4, 0, 0, 0, 0, 0, 1, 2, 0, 0, 0
%           |0, 0, 0, 0, 1, 0, 0, 0, 0, 0, 0, 0, 0, 0, 0, 0, 0, 0, 0, 0, 0, 0, 3, 0, 0, 0
%           |0, 5, 0, 2, 0, 0, 0, 0, 0, 0, 0, 0, 0, 0, 0, 0, 0, 0, 0, 0, 0, 0, 0, 0, 0, 0
%           |];

% Distance matrix
Dist = [|0, 9, 6, 2, 8, 12, 4, 4, 6, 6, 9, 10, 5, 3, 3, 8, 3, 2, 8, 7, 9, 5, 4, 4, 7, 4
      |9, 0, 11, 7, 14, 18, 13, 13, 15, 15, 18, 19, 14, 8, 12, 17, 12, 11, 17, 16, 18, 14, 13, 13, 15, 5
      |6, 11, 0, 4, 3, 7, 10, 10, 12, 12, 8, 16, 11, 5, 8, 9, 9, 8, 14, 13, 15, 4, 7, 5, 4, 6
      |2, 7, 4, 0, 7, 11, 6, 6, 8, 8, 11, 12, 7, 1, 5, 10, 5, 4, 10, 9, 11, 7, 6, 6, 8, 2
      |8, 14, 3, 7, 0, 4, 12, 12, 14, 14, 9, 18, 13, 8, 10, 9, 11, 6, 16, 15, 17, 6, 4, 5, 1, 9
      |12, 18, 7, 11, 4, 0, 16, 14, 10, 16, 5, 14, 15, 12, 13, 13, 13, 10, 18, 11, 21, 9, 8, 9, 5, 13
      |4, 13, 10, 6, 12, 16, 0, 6, 10, 4, 13, 14, 7, 7, 7, 12, 7, 6, 10, 11, 5, 9, 8, 8, 11, 8
      |4, 13, 10, 6, 12, 14, 6, 0, 4, 2, 9, 8, 1, 7, 3, 12, 1, 6, 4, 5, 11, 7, 8, 8, 11, 8
      |6, 15, 12, 8, 14, 10, 10, 4, 0, 6, 5, 4, 5, 9, 5, 14, 3, 8, 8, 1, 15, 9, 10, 10, 13, 10
      |6, 15, 12, 8, 14, 16, 4, 2, 6, 0, 11, 10, 3, 9, 5, 14, 3, 8, 6, 7, 9, 9, 10, 10, 13, 10
      |9, 18, 8, 11, 9, 5, 13, 9, 5, 11, 0, 9, 10, 12, 8, 9, 8, 9, 13, 6, 18, 4, 7, 5, 10, 13
      |10, 19, 16, 12, 18, 14, 14, 8, 4, 10, 9, 0, 9, 13, 9, 18, 7, 12, 12, 5, 19, 13, 14, 14, 17, 14
      |5, 14, 11, 7, 13, 15, 7, 1, 5, 3, 10, 9, 0, 8, 4, 13, 2, 7, 5, 6, 12, 8, 9, 9, 12, 9
      |3, 8, 5, 1, 8, 12, 7, 7, 9, 9, 12, 13, 8, 0, 6, 11, 6, 5, 11, 10, 12, 8, 7, 7, 9, 3
      |3, 12, 8, 5, 10, 13, 7, 3, 5, 5, 8, 9, 4, 6, 0, 9, 2, 5, 7, 6, 12, 4, 7, 5, 10, 7
      |8, 17, 9, 10, 9, 13, 12, 12, 14, 14, 9, 18, 13, 11, 9, 0, 11, 8, 16, 15, 17, 5, 6, 4, 9, 12
      |3, 12, 9, 5, 11, 13, 7, 1, 3, 3, 8, 7, 2, 6, 2, 11, 0, 5, 5, 4, 12, 6, 7, 7, 10, 7
      |2, 11, 8, 4, 6, 10, 6, 6, 8, 8, 9, 12, 7, 5, 5, 8, 5, 0, 10, 9, 11, 5, 2, 4, 5, 6
      |8, 17, 14, 10, 16, 18, 10, 4, 8, 6, 13, 12, 5, 11, 7, 16, 5, 10, 0, 9, 15, 11, 12, 12, 15, 12
      |7, 16, 13, 9, 15, 11, 11, 5, 1, 7, 6, 5, 6, 10, 6, 15, 4, 9, 9, 0, 16, 10, 11, 11, 14, 11
      |9, 18, 15, 11, 17, 21, 5, 11, 15, 9, 18, 19, 12, 12, 12, 17, 12, 11, 15, 16, 0, 14, 13, 13, 16, 13
      |5, 14, 4, 7, 6, 9, 9, 7, 9, 9, 4, 13, 8, 8, 4, 5, 6, 5, 11, 10, 14, 0, 3, 1, 6, 9
      |4, 13, 7, 6, 4, 8, 8, 8, 10, 10, 7, 14, 9, 7, 7, 6, 7, 2, 12, 11, 13, 3, 0, 2, 3, 8
      |4, 13, 5, 6, 5, 9, 8, 8, 10, 10, 5, 14, 9, 7, 5, 4, 7, 4, 12, 11, 13, 1, 2, 0, 5, 8
      |7, 15, 4, 8, 1, 5, 11, 11, 13, 13, 10, 17, 12, 9, 10, 9, 10, 5, 15, 14, 16, 6, 3, 5, 0, 10
      |4, 5, 6, 2, 9, 13, 8, 8, 10, 10, 13, 14, 9, 3, 7, 12, 7, 6, 12, 11, 13, 9, 8, 8, 10, 0
      |];

% Initial object distribution
S_init = [3, 0, 0, 0, 1, 0, 0, 0, 1, 0, 0, 0, 0, 0, 0, 0, 0, 0, 0, 0, 0, 0, 0, 1, 0, 0];

% Target nodes (1 if target, 0 otherwise)
T = [0, 0, 0, 0, 0, 0, 0, 0, 0, 0, 1, 1, 0, 0, 0, 1, 1, 0, 0, 0, 0, 1, 0, 0, 0, 0];

% Initial truck position (1-based indexing)
u = 24;

% --- DEBUG TRACE ---
% --- GENERATION TRACE (Backwards from Target) ---
% Initial distribution (all on targets): [0, 0, 0, 0, 0, 0, 0, 0, 0, 0, 1, 1, 0, 0, 0, 1, 1, 0, 0, 0, 0, 2, 0, 0, 0, 0]
% Step 1: Selected target node 11 (has 1 objects)
% Step 1: Moved object 11 -> 6
% Step 1: Distribution: [0, 0, 0, 0, 0, 1, 0, 0, 0, 0, 0, 1, 0, 0, 0, 1, 1, 0, 0, 0, 0, 2, 0, 0, 0, 0]
% Step 2: Selected target node 22 (has 2 objects)
% Step 2: Moved object 22 -> 24
% Step 2: Distribution: [0, 0, 0, 0, 0, 1, 0, 0, 0, 0, 0, 1, 0, 0, 0, 1, 1, 0, 0, 0, 0, 1, 0, 1, 0, 0]
% Step 3: Selected target node 16 (has 1 objects)
% Step 3: Moved object 16 -> 24
% Step 3: Distribution: [0, 0, 0, 0, 0, 1, 0, 0, 0, 0, 0, 1, 0, 0, 0, 0, 1, 0, 0, 0, 0, 1, 0, 2, 0, 0]
% Step 4: Selected target node 22 (has 1 objects)
% Step 4: Moved object 22 -> 24
% Step 4: Distribution: [0, 0, 0, 0, 0, 1, 0, 0, 0, 0, 0, 1, 0, 0, 0, 0, 1, 0, 0, 0, 0, 0, 0, 3, 0, 0]
% Step 5: Selected target node 17 (has 1 objects)
% Step 5: Moved object 17 -> 1
% Step 5: Distribution: [1, 0, 0, 0, 0, 1, 0, 0, 0, 0, 0, 1, 0, 0, 0, 0, 0, 0, 0, 0, 0, 0, 0, 3, 0, 0]
% Step 6: Selected target node 12 (has 1 objects)
% Step 6: Moved object 12 -> 9
% Step 6: Distribution: [1, 0, 0, 0, 0, 1, 0, 0, 1, 0, 0, 0, 0, 0, 0, 0, 0, 0, 0, 0, 0, 0, 0, 3, 0, 0]
% Step 7: Selected non-target node 6 (has 1 objects)
% Step 7: Avoiding backtrack to node 11
% Step 7: Moved object 6 -> 5
% Step 7: Distribution: [1, 0, 0, 0, 1, 0, 0, 0, 1, 0, 0, 0, 0, 0, 0, 0, 0, 0, 0, 0, 0, 0, 0, 3, 0, 0]
% Step 8: Selected non-target node 24 (has 3 objects)
% Step 8: Avoiding backtrack to node 22
% Step 8: Moved object 24 -> 1
% Step 8: Distribution: [2, 0, 0, 0, 1, 0, 0, 0, 1, 0, 0, 0, 0, 0, 0, 0, 0, 0, 0, 0, 0, 0, 0, 2, 0, 0]
% Step 9: Selected non-target node 24 (has 2 objects)
% Step 9: Avoiding backtrack to node 22
% Step 9: Moved object 24 -> 23
% Step 9: Distribution: [2, 0, 0, 0, 1, 0, 0, 0, 1, 0, 0, 0, 0, 0, 0, 0, 0, 0, 0, 0, 0, 0, 1, 1, 0, 0]
% Step 10: Selected non-target node 23 (has 1 objects)
% Step 10: Avoiding backtrack to node 24
% Step 10: Moved object 23 -> 18
% Step 10: Distribution: [2, 0, 0, 0, 1, 0, 0, 0, 1, 0, 0, 0, 0, 0, 0, 0, 0, 1, 0, 0, 0, 0, 0, 1, 0, 0]
% Step 11: Selected non-target node 18 (has 1 objects)
% Step 11: Avoiding backtrack to node 23
% Step 11: Moved object 18 -> 1
% Step 11: Distribution: [3, 0, 0, 0, 1, 0, 0, 0, 1, 0, 0, 0, 0, 0, 0, 0, 0, 0, 0, 0, 0, 0, 0, 1, 0, 0]
% Truck starting position: 24
