% instance_n26_c2_k5_i90.dzn
% Generated instance for the Trucks problem
% N=26, h=6, k=5

% Number of nodes
N = 26;

% Number of objects
h = 6;

% Maximum plan length
%k = 5;

% Adjacency matrix (0-based internal, will be converted to 1-based)
Adj = [|0, 0, 0, 0, 0, 0, 0, 1, 0, 0, 0, 0, 0, 0, 0, 0, 0, 0, 0, 0, 0, 1, 0, 1, 0, 1
      |0, 0, 0, 0, 0, 0, 0, 0, 0, 0, 0, 1, 0, 0, 0, 0, 0, 0, 0, 0, 0, 0, 0, 0, 0, 0
      |0, 0, 0, 0, 0, 0, 0, 0, 0, 0, 0, 0, 0, 0, 0, 0, 0, 0, 1, 0, 0, 0, 0, 0, 0, 0
      |0, 0, 0, 0, 0, 0, 0, 0, 0, 0, 0, 0, 0, 1, 0, 0, 0, 0, 0, 1, 0, 1, 0, 0, 0, 0
      |0, 0, 0, 0, 0, 0, 1, 0, 0, 0, 1, 0, 0, 0, 0, 0, 0, 0, 0, 0, 0, 0, 0, 0, 0, 0
      |0, 0, 0, 0, 0, 0, 0, 0, 0, 1, 0, 0, 0, 0, 1, 0, 0, 0, 0, 0, 0, 0, 0, 1, 0, 0
      |0, 0, 0, 0, 1, 0, 0, 0, 0, 0, 0, 0, 1, 0, 0, 0, 0, 0, 0, 0, 0, 0, 0, 0, 0, 0
      |1, 0, 0, 0, 0, 0, 0, 0, 0, 0, 0, 0, 0, 0, 0, 0, 0, 0, 0, 0, 0, 0, 0, 0, 0, 0
      |0, 0, 0, 0, 0, 0, 0, 0, 0, 0, 0, 0, 0, 0, 0, 0, 0, 0, 0, 0, 0, 0, 0, 0, 1, 0
      |0, 0, 0, 0, 0, 1, 0, 0, 0, 0, 0, 1, 0, 0, 0, 0, 0, 0, 0, 1, 0, 0, 0, 0, 0, 0
      |0, 0, 0, 0, 1, 0, 0, 0, 0, 0, 0, 0, 0, 0, 0, 1, 0, 0, 0, 0, 1, 0, 0, 0, 0, 0
      |0, 1, 0, 0, 0, 0, 0, 0, 0, 1, 0, 0, 0, 0, 0, 0, 0, 0, 0, 1, 0, 0, 0, 0, 0, 0
      |0, 0, 0, 0, 0, 0, 1, 0, 0, 0, 0, 0, 0, 0, 0, 0, 0, 0, 0, 0, 0, 1, 0, 0, 0, 0
      |0, 0, 0, 1, 0, 0, 0, 0, 0, 0, 0, 0, 0, 0, 0, 0, 0, 0, 0, 0, 0, 0, 0, 0, 1, 0
      |0, 0, 0, 0, 0, 1, 0, 0, 0, 0, 0, 0, 0, 0, 0, 0, 0, 0, 0, 0, 0, 0, 0, 0, 0, 0
      |0, 0, 0, 0, 0, 0, 0, 0, 0, 0, 1, 0, 0, 0, 0, 0, 0, 0, 0, 0, 0, 0, 1, 1, 1, 0
      |0, 0, 0, 0, 0, 0, 0, 0, 0, 0, 0, 0, 0, 0, 0, 0, 0, 0, 0, 0, 0, 0, 0, 0, 0, 1
      |0, 0, 0, 0, 0, 0, 0, 0, 0, 0, 0, 0, 0, 0, 0, 0, 0, 0, 1, 0, 0, 0, 0, 0, 0, 0
      |0, 0, 1, 0, 0, 0, 0, 0, 0, 0, 0, 0, 0, 0, 0, 0, 0, 1, 0, 0, 0, 1, 0, 0, 0, 0
      |0, 0, 0, 1, 0, 0, 0, 0, 0, 1, 0, 1, 0, 0, 0, 0, 0, 0, 0, 0, 0, 0, 0, 1, 0, 0
      |0, 0, 0, 0, 0, 0, 0, 0, 0, 0, 1, 0, 0, 0, 0, 0, 0, 0, 0, 0, 0, 1, 0, 0, 0, 0
      |1, 0, 0, 1, 0, 0, 0, 0, 0, 0, 0, 0, 1, 0, 0, 0, 0, 0, 1, 0, 1, 0, 1, 0, 0, 1
      |0, 0, 0, 0, 0, 0, 0, 0, 0, 0, 0, 0, 0, 0, 0, 1, 0, 0, 0, 0, 0, 1, 0, 0, 0, 0
      |1, 0, 0, 0, 0, 1, 0, 0, 0, 0, 0, 0, 0, 0, 0, 1, 0, 0, 0, 1, 0, 0, 0, 0, 0, 0
      |0, 0, 0, 0, 0, 0, 0, 0, 1, 0, 0, 0, 0, 1, 0, 1, 0, 0, 0, 0, 0, 0, 0, 0, 0, 0
      |1, 0, 0, 0, 0, 0, 0, 0, 0, 0, 0, 0, 0, 0, 0, 0, 1, 0, 0, 0, 0, 1, 0, 0, 0, 0
      |];

% Weights matrix (edge weights)
% Weights = [|0, 0, 0, 0, 0, 0, 0, 4, 0, 0, 0, 0, 0, 0, 0, 0, 0, 0, 0, 0, 0, 4, 0, 2, 0, 1
%           |0, 0, 0, 0, 0, 0, 0, 0, 0, 0, 0, 4, 0, 0, 0, 0, 0, 0, 0, 0, 0, 0, 0, 0, 0, 0
%           |0, 0, 0, 0, 0, 0, 0, 0, 0, 0, 0, 0, 0, 0, 0, 0, 0, 0, 4, 0, 0, 0, 0, 0, 0, 0
%           |0, 0, 0, 0, 0, 0, 0, 0, 0, 0, 0, 0, 0, 1, 0, 0, 0, 0, 0, 5, 0, 2, 0, 0, 0, 0
%           |0, 0, 0, 0, 0, 0, 1, 0, 0, 0, 5, 0, 0, 0, 0, 0, 0, 0, 0, 0, 0, 0, 0, 0, 0, 0
%           |0, 0, 0, 0, 0, 0, 0, 0, 0, 5, 0, 0, 0, 0, 4, 0, 0, 0, 0, 0, 0, 0, 0, 3, 0, 0
%           |0, 0, 0, 0, 1, 0, 0, 0, 0, 0, 0, 0, 4, 0, 0, 0, 0, 0, 0, 0, 0, 0, 0, 0, 0, 0
%           |4, 0, 0, 0, 0, 0, 0, 0, 0, 0, 0, 0, 0, 0, 0, 0, 0, 0, 0, 0, 0, 0, 0, 0, 0, 0
%           |0, 0, 0, 0, 0, 0, 0, 0, 0, 0, 0, 0, 0, 0, 0, 0, 0, 0, 0, 0, 0, 0, 0, 0, 1, 0
%           |0, 0, 0, 0, 0, 5, 0, 0, 0, 0, 0, 5, 0, 0, 0, 0, 0, 0, 0, 4, 0, 0, 0, 0, 0, 0
%           |0, 0, 0, 0, 5, 0, 0, 0, 0, 0, 0, 0, 0, 0, 0, 3, 0, 0, 0, 0, 4, 0, 0, 0, 0, 0
%           |0, 4, 0, 0, 0, 0, 0, 0, 0, 5, 0, 0, 0, 0, 0, 0, 0, 0, 0, 2, 0, 0, 0, 0, 0, 0
%           |0, 0, 0, 0, 0, 0, 4, 0, 0, 0, 0, 0, 0, 0, 0, 0, 0, 0, 0, 0, 0, 2, 0, 0, 0, 0
%           |0, 0, 0, 1, 0, 0, 0, 0, 0, 0, 0, 0, 0, 0, 0, 0, 0, 0, 0, 0, 0, 0, 0, 0, 5, 0
%           |0, 0, 0, 0, 0, 4, 0, 0, 0, 0, 0, 0, 0, 0, 0, 0, 0, 0, 0, 0, 0, 0, 0, 0, 0, 0
%           |0, 0, 0, 0, 0, 0, 0, 0, 0, 0, 3, 0, 0, 0, 0, 0, 0, 0, 0, 0, 0, 0, 2, 2, 2, 0
%           |0, 0, 0, 0, 0, 0, 0, 0, 0, 0, 0, 0, 0, 0, 0, 0, 0, 0, 0, 0, 0, 0, 0, 0, 0, 1
%           |0, 0, 0, 0, 0, 0, 0, 0, 0, 0, 0, 0, 0, 0, 0, 0, 0, 0, 1, 0, 0, 0, 0, 0, 0, 0
%           |0, 0, 4, 0, 0, 0, 0, 0, 0, 0, 0, 0, 0, 0, 0, 0, 0, 1, 0, 0, 0, 3, 0, 0, 0, 0
%           |0, 0, 0, 5, 0, 0, 0, 0, 0, 4, 0, 2, 0, 0, 0, 0, 0, 0, 0, 0, 0, 0, 0, 2, 0, 0
%           |0, 0, 0, 0, 0, 0, 0, 0, 0, 0, 4, 0, 0, 0, 0, 0, 0, 0, 0, 0, 0, 4, 0, 0, 0, 0
%           |4, 0, 0, 2, 0, 0, 0, 0, 0, 0, 0, 0, 2, 0, 0, 0, 0, 0, 3, 0, 4, 0, 2, 0, 0, 4
%           |0, 0, 0, 0, 0, 0, 0, 0, 0, 0, 0, 0, 0, 0, 0, 2, 0, 0, 0, 0, 0, 2, 0, 0, 0, 0
%           |2, 0, 0, 0, 0, 3, 0, 0, 0, 0, 0, 0, 0, 0, 0, 2, 0, 0, 0, 2, 0, 0, 0, 0, 0, 0
%           |0, 0, 0, 0, 0, 0, 0, 0, 1, 0, 0, 0, 0, 5, 0, 2, 0, 0, 0, 0, 0, 0, 0, 0, 0, 0
%           |1, 0, 0, 0, 0, 0, 0, 0, 0, 0, 0, 0, 0, 0, 0, 0, 1, 0, 0, 0, 0, 4, 0, 0, 0, 0
%           |];

% Distance matrix
Dist = [|0, 10, 11, 6, 11, 5, 10, 4, 7, 8, 7, 6, 6, 7, 9, 4, 2, 8, 7, 4, 8, 4, 6, 2, 6, 1
      |10, 0, 20, 11, 18, 11, 19, 14, 13, 9, 13, 4, 15, 12, 15, 10, 12, 17, 16, 6, 17, 13, 12, 8, 12, 11
      |11, 20, 0, 9, 14, 16, 13, 15, 14, 18, 14, 16, 9, 10, 20, 11, 12, 5, 4, 14, 11, 7, 9, 13, 13, 11
      |6, 11, 9, 0, 9, 10, 8, 10, 7, 9, 9, 7, 4, 1, 14, 6, 7, 6, 5, 5, 6, 2, 4, 7, 6, 6
      |11, 18, 14, 9, 0, 13, 1, 15, 11, 16, 5, 14, 5, 10, 17, 8, 12, 11, 10, 12, 9, 7, 9, 10, 10, 11
      |5, 11, 16, 10, 13, 0, 14, 9, 8, 5, 8, 7, 11, 11, 4, 5, 7, 13, 12, 5, 12, 9, 7, 3, 7, 6
      |10, 19, 13, 8, 1, 14, 0, 14, 12, 17, 6, 15, 4, 9, 18, 9, 11, 10, 9, 13, 10, 6, 8, 11, 11, 10
      |4, 14, 15, 10, 15, 9, 14, 0, 11, 12, 11, 10, 10, 11, 13, 8, 6, 12, 11, 8, 12, 8, 10, 6, 10, 5
      |7, 13, 14, 7, 11, 8, 12, 11, 0, 11, 6, 9, 9, 6, 12, 3, 9, 11, 10, 7, 10, 7, 5, 5, 1, 8
      |8, 9, 18, 9, 16, 5, 17, 12, 11, 0, 11, 5, 13, 10, 9, 8, 10, 15, 14, 4, 15, 11, 10, 6, 10, 9
      |7, 13, 14, 9, 5, 8, 6, 11, 6, 11, 0, 9, 9, 10, 12, 3, 9, 11, 10, 7, 4, 7, 5, 5, 5, 8
      |6, 4, 16, 7, 14, 7, 15, 10, 9, 5, 9, 0, 11, 8, 11, 6, 8, 13, 12, 2, 13, 9, 8, 4, 8, 7
      |6, 15, 9, 4, 5, 11, 4, 10, 9, 13, 9, 11, 0, 5, 15, 6, 7, 6, 5, 9, 6, 2, 4, 8, 8, 6
      |7, 12, 10, 1, 10, 11, 9, 11, 6, 10, 10, 8, 5, 0, 15, 7, 8, 7, 6, 6, 7, 3, 5, 8, 5, 7
      |9, 15, 20, 14, 17, 4, 18, 13, 12, 9, 12, 11, 15, 15, 0, 9, 11, 17, 16, 9, 16, 13, 11, 7, 11, 10
      |4, 10, 11, 6, 8, 5, 9, 8, 3, 8, 3, 6, 6, 7, 9, 0, 6, 8, 7, 4, 7, 4, 2, 2, 2, 5
      |2, 12, 12, 7, 12, 7, 11, 6, 9, 10, 9, 8, 7, 8, 11, 6, 0, 9, 8, 6, 9, 5, 7, 4, 8, 1
      |8, 17, 5, 6, 11, 13, 10, 12, 11, 15, 11, 13, 6, 7, 17, 8, 9, 0, 1, 11, 8, 4, 6, 10, 10, 8
      |7, 16, 4, 5, 10, 12, 9, 11, 10, 14, 10, 12, 5, 6, 16, 7, 8, 1, 0, 10, 7, 3, 5, 9, 9, 7
      |4, 6, 14, 5, 12, 5, 13, 8, 7, 4, 7, 2, 9, 6, 9, 4, 6, 11, 10, 0, 11, 7, 6, 2, 6, 5
      |8, 17, 11, 6, 9, 12, 10, 12, 10, 15, 4, 13, 6, 7, 16, 7, 9, 8, 7, 11, 0, 4, 6, 9, 9, 8
      |4, 13, 7, 2, 7, 9, 6, 8, 7, 11, 7, 9, 2, 3, 13, 4, 5, 4, 3, 7, 4, 0, 2, 6, 6, 4
      |6, 12, 9, 4, 9, 7, 8, 10, 5, 10, 5, 8, 4, 5, 11, 2, 7, 6, 5, 6, 6, 2, 0, 4, 4, 6
      |2, 8, 13, 7, 10, 3, 11, 6, 5, 6, 5, 4, 8, 8, 7, 2, 4, 10, 9, 2, 9, 6, 4, 0, 4, 3
      |6, 12, 13, 6, 10, 7, 11, 10, 1, 10, 5, 8, 8, 5, 11, 2, 8, 10, 9, 6, 9, 6, 4, 4, 0, 7
      |1, 11, 11, 6, 11, 6, 10, 5, 8, 9, 8, 7, 6, 7, 10, 5, 1, 8, 7, 5, 8, 4, 6, 3, 7, 0
      |];

% Initial object distribution
S_init = [0, 0, 0, 0, 0, 0, 1, 0, 0, 0, 0, 1, 0, 0, 0, 1, 0, 0, 1, 1, 0, 1, 0, 0, 0, 0];

% Target nodes (1 if target, 0 otherwise)
T = [1, 0, 0, 0, 0, 0, 0, 0, 0, 1, 0, 1, 1, 0, 0, 0, 0, 1, 0, 0, 0, 0, 1, 0, 0, 0];

% Initial truck position (1-based indexing)
u = 7;

% --- DEBUG TRACE ---
% --- GENERATION TRACE (Backwards from Target) ---
% Initial distribution (all on targets): [1, 0, 0, 0, 0, 0, 0, 0, 0, 1, 0, 1, 1, 0, 0, 0, 0, 1, 0, 0, 0, 0, 1, 0, 0, 0]
% Step 1: Selected target node 10 (has 1 objects)
% Step 1: Moved object 10 -> 20
% Step 1: Distribution: [1, 0, 0, 0, 0, 0, 0, 0, 0, 0, 0, 1, 1, 0, 0, 0, 0, 1, 0, 1, 0, 0, 1, 0, 0, 0]
% Step 2: Selected target node 13 (has 1 objects)
% Step 2: Moved object 13 -> 7
% Step 2: Distribution: [1, 0, 0, 0, 0, 0, 1, 0, 0, 0, 0, 1, 0, 0, 0, 0, 0, 1, 0, 1, 0, 0, 1, 0, 0, 0]
% Step 3: Selected target node 18 (has 1 objects)
% Step 3: Moved object 18 -> 19
% Step 3: Distribution: [1, 0, 0, 0, 0, 0, 1, 0, 0, 0, 0, 1, 0, 0, 0, 0, 0, 0, 1, 1, 0, 0, 1, 0, 0, 0]
% Step 4: Selected target node 23 (has 1 objects)
% Step 4: Moved object 23 -> 16
% Step 4: Distribution: [1, 0, 0, 0, 0, 0, 1, 0, 0, 0, 0, 1, 0, 0, 0, 1, 0, 0, 1, 1, 0, 0, 0, 0, 0, 0]
% Step 5: Selected target node 1 (has 1 objects)
% Step 5: Moved object 1 -> 22
% Step 5: Distribution: [0, 0, 0, 0, 0, 0, 1, 0, 0, 0, 0, 1, 0, 0, 0, 1, 0, 0, 1, 1, 0, 1, 0, 0, 0, 0]
% Truck starting position: 7
