% instance_n18_c0_k5_i40.dzn
% Generated instance for the Trucks problem
% N=18, h=4, k=5

% Number of nodes
N = 18;

% Number of objects
h = 4;

% Maximum plan length
%k = 5;

% Adjacency matrix (0-based internal, will be converted to 1-based)
Adj = [|0, 0, 0, 1, 0, 0, 0, 0, 1, 0, 0, 1, 1, 1, 0, 1, 1, 0
      |0, 0, 0, 1, 0, 0, 0, 0, 0, 0, 0, 0, 0, 0, 0, 0, 0, 0
      |0, 0, 0, 0, 0, 1, 0, 0, 0, 0, 0, 0, 0, 0, 0, 0, 0, 0
      |1, 1, 0, 0, 0, 1, 0, 0, 0, 0, 0, 0, 0, 0, 0, 0, 0, 0
      |0, 0, 0, 0, 0, 0, 0, 1, 0, 0, 0, 0, 0, 1, 0, 0, 0, 0
      |0, 0, 1, 1, 0, 0, 0, 1, 0, 0, 0, 0, 0, 0, 0, 0, 0, 0
      |0, 0, 0, 0, 0, 0, 0, 1, 1, 0, 0, 0, 0, 0, 0, 0, 0, 0
      |0, 0, 0, 0, 1, 1, 1, 0, 0, 0, 1, 1, 0, 0, 0, 0, 0, 0
      |1, 0, 0, 0, 0, 0, 1, 0, 0, 0, 0, 0, 0, 0, 1, 0, 0, 1
      |0, 0, 0, 0, 0, 0, 0, 0, 0, 0, 0, 1, 0, 0, 0, 0, 0, 0
      |0, 0, 0, 0, 0, 0, 0, 1, 0, 0, 0, 0, 0, 0, 0, 0, 1, 0
      |1, 0, 0, 0, 0, 0, 0, 1, 0, 1, 0, 0, 0, 1, 0, 0, 1, 0
      |1, 0, 0, 0, 0, 0, 0, 0, 0, 0, 0, 0, 0, 0, 0, 0, 0, 0
      |1, 0, 0, 0, 1, 0, 0, 0, 0, 0, 0, 1, 0, 0, 0, 0, 0, 0
      |0, 0, 0, 0, 0, 0, 0, 0, 1, 0, 0, 0, 0, 0, 0, 1, 0, 0
      |1, 0, 0, 0, 0, 0, 0, 0, 0, 0, 0, 0, 0, 0, 1, 0, 0, 0
      |1, 0, 0, 0, 0, 0, 0, 0, 0, 0, 1, 1, 0, 0, 0, 0, 0, 0
      |0, 0, 0, 0, 0, 0, 0, 0, 1, 0, 0, 0, 0, 0, 0, 0, 0, 0
      |];

% Weights matrix (edge weights)
% Weights = [|0, 0, 0, 3, 0, 0, 0, 0, 3, 0, 0, 4, 5, 5, 0, 1, 4, 0
%           |0, 0, 0, 4, 0, 0, 0, 0, 0, 0, 0, 0, 0, 0, 0, 0, 0, 0
%           |0, 0, 0, 0, 0, 1, 0, 0, 0, 0, 0, 0, 0, 0, 0, 0, 0, 0
%           |3, 4, 0, 0, 0, 5, 0, 0, 0, 0, 0, 0, 0, 0, 0, 0, 0, 0
%           |0, 0, 0, 0, 0, 0, 0, 1, 0, 0, 0, 0, 0, 5, 0, 0, 0, 0
%           |0, 0, 1, 5, 0, 0, 0, 1, 0, 0, 0, 0, 0, 0, 0, 0, 0, 0
%           |0, 0, 0, 0, 0, 0, 0, 1, 1, 0, 0, 0, 0, 0, 0, 0, 0, 0
%           |0, 0, 0, 0, 1, 1, 1, 0, 0, 0, 3, 3, 0, 0, 0, 0, 0, 0
%           |3, 0, 0, 0, 0, 0, 1, 0, 0, 0, 0, 0, 0, 0, 5, 0, 0, 4
%           |0, 0, 0, 0, 0, 0, 0, 0, 0, 0, 0, 4, 0, 0, 0, 0, 0, 0
%           |0, 0, 0, 0, 0, 0, 0, 3, 0, 0, 0, 0, 0, 0, 0, 0, 1, 0
%           |4, 0, 0, 0, 0, 0, 0, 3, 0, 4, 0, 0, 0, 2, 0, 0, 4, 0
%           |5, 0, 0, 0, 0, 0, 0, 0, 0, 0, 0, 0, 0, 0, 0, 0, 0, 0
%           |5, 0, 0, 0, 5, 0, 0, 0, 0, 0, 0, 2, 0, 0, 0, 0, 0, 0
%           |0, 0, 0, 0, 0, 0, 0, 0, 5, 0, 0, 0, 0, 0, 0, 2, 0, 0
%           |1, 0, 0, 0, 0, 0, 0, 0, 0, 0, 0, 0, 0, 0, 2, 0, 0, 0
%           |4, 0, 0, 0, 0, 0, 0, 0, 0, 0, 1, 4, 0, 0, 0, 0, 0, 0
%           |0, 0, 0, 0, 0, 0, 0, 0, 4, 0, 0, 0, 0, 0, 0, 0, 0, 0
%           |];

% Distance matrix
Dist = [|0, 7, 7, 3, 6, 6, 4, 5, 3, 8, 5, 4, 5, 5, 3, 1, 4, 7
      |7, 0, 10, 4, 11, 9, 11, 10, 10, 15, 12, 11, 12, 12, 10, 8, 11, 14
      |7, 10, 0, 6, 3, 1, 3, 2, 4, 9, 5, 5, 12, 7, 9, 8, 6, 8
      |3, 4, 6, 0, 7, 5, 7, 6, 6, 11, 8, 7, 8, 8, 6, 4, 7, 10
      |6, 11, 3, 7, 0, 2, 2, 1, 3, 8, 4, 4, 11, 5, 8, 7, 5, 7
      |6, 9, 1, 5, 2, 0, 2, 1, 3, 8, 4, 4, 11, 6, 8, 7, 5, 7
      |4, 11, 3, 7, 2, 2, 0, 1, 1, 8, 4, 4, 9, 6, 6, 5, 5, 5
      |5, 10, 2, 6, 1, 1, 1, 0, 2, 7, 3, 3, 10, 5, 7, 6, 4, 6
      |3, 10, 4, 6, 3, 3, 1, 2, 0, 9, 5, 5, 8, 7, 5, 4, 6, 4
      |8, 15, 9, 11, 8, 8, 8, 7, 9, 0, 9, 4, 13, 6, 11, 9, 8, 13
      |5, 12, 5, 8, 4, 4, 4, 3, 5, 9, 0, 5, 10, 7, 8, 6, 1, 9
      |4, 11, 5, 7, 4, 4, 4, 3, 5, 4, 5, 0, 9, 2, 7, 5, 4, 9
      |5, 12, 12, 8, 11, 11, 9, 10, 8, 13, 10, 9, 0, 10, 8, 6, 9, 12
      |5, 12, 7, 8, 5, 6, 6, 5, 7, 6, 7, 2, 10, 0, 8, 6, 6, 11
      |3, 10, 9, 6, 8, 8, 6, 7, 5, 11, 8, 7, 8, 8, 0, 2, 7, 9
      |1, 8, 8, 4, 7, 7, 5, 6, 4, 9, 6, 5, 6, 6, 2, 0, 5, 8
      |4, 11, 6, 7, 5, 5, 5, 4, 6, 8, 1, 4, 9, 6, 7, 5, 0, 10
      |7, 14, 8, 10, 7, 7, 5, 6, 4, 13, 9, 9, 12, 11, 9, 8, 10, 0
      |];

% Initial object distribution
S_init = [0, 1, 1, 0, 0, 0, 0, 0, 2, 0, 0, 0, 0, 0, 0, 0, 0, 0];

% Target nodes (1 if target, 0 otherwise)
T = [1, 0, 0, 1, 0, 0, 1, 0, 0, 0, 0, 0, 0, 0, 0, 0, 0, 0];

% Initial truck position (1-based indexing)
u = 10;

% --- DEBUG TRACE ---
% --- GENERATION TRACE (Backwards from Target) ---
% Initial distribution (all on targets): [1, 0, 0, 2, 0, 0, 1, 0, 0, 0, 0, 0, 0, 0, 0, 0, 0, 0]
% Step 1: Selected target node 4 (has 2 objects)
% Step 1: Moved object 4 -> 6
% Step 1: Distribution: [1, 0, 0, 1, 0, 1, 1, 0, 0, 0, 0, 0, 0, 0, 0, 0, 0, 0]
% Step 2: Selected target node 4 (has 1 objects)
% Step 2: Moved object 4 -> 2
% Step 2: Distribution: [1, 1, 0, 0, 0, 1, 1, 0, 0, 0, 0, 0, 0, 0, 0, 0, 0, 0]
% Step 3: Selected target node 7 (has 1 objects)
% Step 3: Moved object 7 -> 9
% Step 3: Distribution: [1, 1, 0, 0, 0, 1, 0, 0, 1, 0, 0, 0, 0, 0, 0, 0, 0, 0]
% Step 4: Selected target node 1 (has 1 objects)
% Step 4: Moved object 1 -> 9
% Step 4: Distribution: [0, 1, 0, 0, 0, 1, 0, 0, 2, 0, 0, 0, 0, 0, 0, 0, 0, 0]
% Step 5: Selected non-target node 6 (has 1 objects)
% Step 5: Avoiding backtrack to node 4
% Step 5: Moved object 6 -> 3
% Step 5: Distribution: [0, 1, 1, 0, 0, 0, 0, 0, 2, 0, 0, 0, 0, 0, 0, 0, 0, 0]
% Truck starting position: 10
