% instance_n26_c0_k8_i81.dzn
% Generated instance for the Trucks problem
% N=26, h=6, k=8

% Number of nodes
N = 26;

% Number of objects
h = 6;

% Maximum plan length
%k = 8;

% Adjacency matrix (0-based internal, will be converted to 1-based)
Adj = [|0, 0, 0, 0, 0, 1, 1, 0, 0, 0, 0, 0, 0, 0, 0, 0, 0, 1, 0, 0, 1, 0, 1, 0, 0, 1
      |0, 0, 0, 1, 0, 0, 0, 0, 0, 0, 0, 0, 0, 0, 0, 0, 0, 0, 0, 0, 0, 0, 0, 0, 0, 0
      |0, 0, 0, 0, 0, 0, 0, 0, 0, 0, 0, 1, 0, 0, 1, 0, 0, 0, 0, 0, 0, 0, 0, 0, 0, 0
      |0, 1, 0, 0, 0, 0, 0, 0, 0, 0, 1, 0, 0, 0, 1, 0, 0, 0, 0, 0, 0, 0, 0, 0, 0, 0
      |0, 0, 0, 0, 0, 0, 0, 0, 1, 0, 0, 0, 0, 0, 0, 1, 0, 0, 0, 0, 0, 0, 0, 0, 0, 0
      |1, 0, 0, 0, 0, 0, 0, 0, 0, 0, 0, 0, 0, 0, 0, 0, 0, 1, 0, 0, 0, 1, 0, 0, 0, 0
      |1, 0, 0, 0, 0, 0, 0, 0, 0, 0, 0, 0, 1, 0, 1, 1, 0, 0, 0, 1, 0, 0, 0, 1, 0, 0
      |0, 0, 0, 0, 0, 0, 0, 0, 0, 0, 0, 0, 1, 0, 0, 0, 0, 0, 0, 0, 0, 0, 0, 0, 0, 0
      |0, 0, 0, 0, 1, 0, 0, 0, 0, 0, 0, 0, 1, 1, 0, 0, 0, 0, 0, 0, 0, 0, 0, 0, 0, 0
      |0, 0, 0, 0, 0, 0, 0, 0, 0, 0, 0, 0, 0, 0, 0, 0, 0, 0, 0, 0, 0, 0, 0, 1, 0, 0
      |0, 0, 0, 1, 0, 0, 0, 0, 0, 0, 0, 0, 0, 1, 0, 0, 0, 0, 0, 0, 0, 0, 0, 0, 0, 0
      |0, 0, 1, 0, 0, 0, 0, 0, 0, 0, 0, 0, 0, 1, 0, 0, 0, 0, 1, 0, 0, 0, 0, 0, 1, 0
      |0, 0, 0, 0, 0, 0, 1, 1, 1, 0, 0, 0, 0, 0, 0, 0, 0, 0, 0, 0, 0, 0, 0, 0, 0, 0
      |0, 0, 0, 0, 0, 0, 0, 0, 1, 0, 1, 1, 0, 0, 0, 0, 0, 0, 0, 0, 0, 0, 0, 0, 0, 0
      |0, 0, 1, 1, 0, 0, 1, 0, 0, 0, 0, 0, 0, 0, 0, 1, 0, 0, 0, 0, 0, 0, 0, 0, 1, 0
      |0, 0, 0, 0, 1, 0, 1, 0, 0, 0, 0, 0, 0, 0, 1, 0, 0, 0, 0, 0, 0, 0, 0, 0, 0, 0
      |0, 0, 0, 0, 0, 0, 0, 0, 0, 0, 0, 0, 0, 0, 0, 0, 0, 0, 0, 0, 0, 0, 1, 0, 0, 0
      |1, 0, 0, 0, 0, 1, 0, 0, 0, 0, 0, 0, 0, 0, 0, 0, 0, 0, 0, 1, 0, 1, 0, 0, 0, 0
      |0, 0, 0, 0, 0, 0, 0, 0, 0, 0, 0, 1, 0, 0, 0, 0, 0, 0, 0, 0, 0, 0, 0, 0, 0, 1
      |0, 0, 0, 0, 0, 0, 1, 0, 0, 0, 0, 0, 0, 0, 0, 0, 0, 1, 0, 0, 0, 0, 0, 0, 0, 0
      |1, 0, 0, 0, 0, 0, 0, 0, 0, 0, 0, 0, 0, 0, 0, 0, 0, 0, 0, 0, 0, 0, 0, 0, 0, 0
      |0, 0, 0, 0, 0, 1, 0, 0, 0, 0, 0, 0, 0, 0, 0, 0, 0, 1, 0, 0, 0, 0, 0, 0, 0, 0
      |1, 0, 0, 0, 0, 0, 0, 0, 0, 0, 0, 0, 0, 0, 0, 0, 1, 0, 0, 0, 0, 0, 0, 0, 0, 0
      |0, 0, 0, 0, 0, 0, 1, 0, 0, 1, 0, 0, 0, 0, 0, 0, 0, 0, 0, 0, 0, 0, 0, 0, 0, 0
      |0, 0, 0, 0, 0, 0, 0, 0, 0, 0, 0, 1, 0, 0, 1, 0, 0, 0, 0, 0, 0, 0, 0, 0, 0, 0
      |1, 0, 0, 0, 0, 0, 0, 0, 0, 0, 0, 0, 0, 0, 0, 0, 0, 0, 1, 0, 0, 0, 0, 0, 0, 0
      |];

% Weights matrix (edge weights)
% Weights = [|0, 0, 0, 0, 0, 4, 4, 0, 0, 0, 0, 0, 0, 0, 0, 0, 0, 2, 0, 0, 4, 0, 5, 0, 0, 3
%           |0, 0, 0, 1, 0, 0, 0, 0, 0, 0, 0, 0, 0, 0, 0, 0, 0, 0, 0, 0, 0, 0, 0, 0, 0, 0
%           |0, 0, 0, 0, 0, 0, 0, 0, 0, 0, 0, 3, 0, 0, 2, 0, 0, 0, 0, 0, 0, 0, 0, 0, 0, 0
%           |0, 1, 0, 0, 0, 0, 0, 0, 0, 0, 2, 0, 0, 0, 5, 0, 0, 0, 0, 0, 0, 0, 0, 0, 0, 0
%           |0, 0, 0, 0, 0, 0, 0, 0, 1, 0, 0, 0, 0, 0, 0, 1, 0, 0, 0, 0, 0, 0, 0, 0, 0, 0
%           |4, 0, 0, 0, 0, 0, 0, 0, 0, 0, 0, 0, 0, 0, 0, 0, 0, 2, 0, 0, 0, 4, 0, 0, 0, 0
%           |4, 0, 0, 0, 0, 0, 0, 0, 0, 0, 0, 0, 3, 0, 3, 5, 0, 0, 0, 4, 0, 0, 0, 5, 0, 0
%           |0, 0, 0, 0, 0, 0, 0, 0, 0, 0, 0, 0, 5, 0, 0, 0, 0, 0, 0, 0, 0, 0, 0, 0, 0, 0
%           |0, 0, 0, 0, 1, 0, 0, 0, 0, 0, 0, 0, 5, 5, 0, 0, 0, 0, 0, 0, 0, 0, 0, 0, 0, 0
%           |0, 0, 0, 0, 0, 0, 0, 0, 0, 0, 0, 0, 0, 0, 0, 0, 0, 0, 0, 0, 0, 0, 0, 5, 0, 0
%           |0, 0, 0, 2, 0, 0, 0, 0, 0, 0, 0, 0, 0, 3, 0, 0, 0, 0, 0, 0, 0, 0, 0, 0, 0, 0
%           |0, 0, 3, 0, 0, 0, 0, 0, 0, 0, 0, 0, 0, 4, 0, 0, 0, 0, 1, 0, 0, 0, 0, 0, 5, 0
%           |0, 0, 0, 0, 0, 0, 3, 5, 5, 0, 0, 0, 0, 0, 0, 0, 0, 0, 0, 0, 0, 0, 0, 0, 0, 0
%           |0, 0, 0, 0, 0, 0, 0, 0, 5, 0, 3, 4, 0, 0, 0, 0, 0, 0, 0, 0, 0, 0, 0, 0, 0, 0
%           |0, 0, 2, 5, 0, 0, 3, 0, 0, 0, 0, 0, 0, 0, 0, 2, 0, 0, 0, 0, 0, 0, 0, 0, 1, 0
%           |0, 0, 0, 0, 1, 0, 5, 0, 0, 0, 0, 0, 0, 0, 2, 0, 0, 0, 0, 0, 0, 0, 0, 0, 0, 0
%           |0, 0, 0, 0, 0, 0, 0, 0, 0, 0, 0, 0, 0, 0, 0, 0, 0, 0, 0, 0, 0, 0, 3, 0, 0, 0
%           |2, 0, 0, 0, 0, 2, 0, 0, 0, 0, 0, 0, 0, 0, 0, 0, 0, 0, 0, 2, 0, 5, 0, 0, 0, 0
%           |0, 0, 0, 0, 0, 0, 0, 0, 0, 0, 0, 1, 0, 0, 0, 0, 0, 0, 0, 0, 0, 0, 0, 0, 0, 3
%           |0, 0, 0, 0, 0, 0, 4, 0, 0, 0, 0, 0, 0, 0, 0, 0, 0, 2, 0, 0, 0, 0, 0, 0, 0, 0
%           |4, 0, 0, 0, 0, 0, 0, 0, 0, 0, 0, 0, 0, 0, 0, 0, 0, 0, 0, 0, 0, 0, 0, 0, 0, 0
%           |0, 0, 0, 0, 0, 4, 0, 0, 0, 0, 0, 0, 0, 0, 0, 0, 0, 5, 0, 0, 0, 0, 0, 0, 0, 0
%           |5, 0, 0, 0, 0, 0, 0, 0, 0, 0, 0, 0, 0, 0, 0, 0, 3, 0, 0, 0, 0, 0, 0, 0, 0, 0
%           |0, 0, 0, 0, 0, 0, 5, 0, 0, 5, 0, 0, 0, 0, 0, 0, 0, 0, 0, 0, 0, 0, 0, 0, 0, 0
%           |0, 0, 0, 0, 0, 0, 0, 0, 0, 0, 0, 5, 0, 0, 1, 0, 0, 0, 0, 0, 0, 0, 0, 0, 0, 0
%           |3, 0, 0, 0, 0, 0, 0, 0, 0, 0, 0, 0, 0, 0, 0, 0, 0, 0, 3, 0, 0, 0, 0, 0, 0, 0
%           |];

% Distance matrix
Dist = [|0, 13, 9, 12, 10, 4, 4, 12, 11, 14, 14, 7, 7, 11, 7, 9, 8, 2, 6, 4, 4, 7, 5, 9, 8, 3
      |13, 0, 8, 1, 9, 17, 9, 17, 10, 19, 3, 10, 12, 6, 6, 8, 21, 15, 11, 13, 17, 20, 18, 14, 7, 14
      |9, 8, 0, 7, 5, 13, 5, 13, 6, 15, 9, 3, 8, 7, 2, 4, 17, 11, 4, 9, 13, 16, 14, 10, 3, 7
      |12, 1, 7, 0, 8, 16, 8, 16, 9, 18, 2, 9, 11, 5, 5, 7, 20, 14, 10, 12, 16, 19, 17, 13, 6, 13
      |10, 9, 5, 8, 0, 14, 6, 11, 1, 16, 9, 8, 6, 6, 3, 1, 18, 12, 9, 10, 14, 17, 15, 11, 4, 12
      |4, 17, 13, 16, 14, 0, 8, 16, 15, 18, 18, 11, 11, 15, 11, 13, 12, 2, 10, 4, 8, 4, 9, 13, 12, 7
      |4, 9, 5, 8, 6, 8, 0, 8, 7, 10, 10, 8, 3, 12, 3, 5, 12, 6, 9, 4, 8, 11, 9, 5, 4, 7
      |12, 17, 13, 16, 11, 16, 8, 0, 10, 18, 18, 16, 5, 15, 11, 12, 20, 14, 17, 12, 16, 19, 17, 13, 12, 15
      |11, 10, 6, 9, 1, 15, 7, 10, 0, 17, 8, 9, 5, 5, 4, 2, 19, 13, 10, 11, 15, 18, 16, 12, 5, 13
      |14, 19, 15, 18, 16, 18, 10, 18, 17, 0, 20, 18, 13, 22, 13, 15, 22, 16, 19, 14, 18, 21, 19, 5, 14, 17
      |14, 3, 9, 2, 9, 18, 10, 18, 8, 20, 0, 7, 13, 3, 7, 9, 22, 16, 8, 14, 18, 21, 19, 15, 8, 11
      |7, 10, 3, 9, 8, 11, 8, 16, 9, 18, 7, 0, 11, 4, 5, 7, 15, 9, 1, 11, 11, 14, 12, 13, 5, 4
      |7, 12, 8, 11, 6, 11, 3, 5, 5, 13, 13, 11, 0, 10, 6, 7, 15, 9, 12, 7, 11, 14, 12, 8, 7, 10
      |11, 6, 7, 5, 6, 15, 12, 15, 5, 22, 3, 4, 10, 0, 9, 7, 19, 13, 5, 15, 15, 18, 16, 17, 9, 8
      |7, 6, 2, 5, 3, 11, 3, 11, 4, 13, 7, 5, 6, 9, 0, 2, 15, 9, 6, 7, 11, 14, 12, 8, 1, 9
      |9, 8, 4, 7, 1, 13, 5, 12, 2, 15, 9, 7, 7, 7, 2, 0, 17, 11, 8, 9, 13, 16, 14, 10, 3, 11
      |8, 21, 17, 20, 18, 12, 12, 20, 19, 22, 22, 15, 15, 19, 15, 17, 0, 10, 14, 12, 12, 15, 3, 17, 16, 11
      |2, 15, 11, 14, 12, 2, 6, 14, 13, 16, 16, 9, 9, 13, 9, 11, 10, 0, 8, 2, 6, 5, 7, 11, 10, 5
      |6, 11, 4, 10, 9, 10, 9, 17, 10, 19, 8, 1, 12, 5, 6, 8, 14, 8, 0, 10, 10, 13, 11, 14, 6, 3
      |4, 13, 9, 12, 10, 4, 4, 12, 11, 14, 14, 11, 7, 15, 7, 9, 12, 2, 10, 0, 8, 7, 9, 9, 8, 7
      |4, 17, 13, 16, 14, 8, 8, 16, 15, 18, 18, 11, 11, 15, 11, 13, 12, 6, 10, 8, 0, 11, 9, 13, 12, 7
      |7, 20, 16, 19, 17, 4, 11, 19, 18, 21, 21, 14, 14, 18, 14, 16, 15, 5, 13, 7, 11, 0, 12, 16, 15, 10
      |5, 18, 14, 17, 15, 9, 9, 17, 16, 19, 19, 12, 12, 16, 12, 14, 3, 7, 11, 9, 9, 12, 0, 14, 13, 8
      |9, 14, 10, 13, 11, 13, 5, 13, 12, 5, 15, 13, 8, 17, 8, 10, 17, 11, 14, 9, 13, 16, 14, 0, 9, 12
      |8, 7, 3, 6, 4, 12, 4, 12, 5, 14, 8, 5, 7, 9, 1, 3, 16, 10, 6, 8, 12, 15, 13, 9, 0, 9
      |3, 14, 7, 13, 12, 7, 7, 15, 13, 17, 11, 4, 10, 8, 9, 11, 11, 5, 3, 7, 7, 10, 8, 12, 9, 0
      |];

% Initial object distribution
S_init = [0, 0, 0, 0, 0, 0, 2, 0, 2, 0, 0, 0, 0, 0, 2, 0, 0, 0, 0, 0, 0, 0, 0, 0, 0, 0];

% Target nodes (1 if target, 0 otherwise)
T = [0, 0, 0, 1, 1, 0, 0, 0, 0, 0, 0, 1, 0, 1, 0, 1, 0, 0, 0, 0, 0, 0, 0, 0, 0, 0];

% Initial truck position (1-based indexing)
u = 1;

% --- DEBUG TRACE ---
% --- GENERATION TRACE (Backwards from Target) ---
% Initial distribution (all on targets): [0, 0, 0, 1, 1, 0, 0, 0, 0, 0, 0, 1, 0, 1, 0, 2, 0, 0, 0, 0, 0, 0, 0, 0, 0, 0]
% Step 1: Selected target node 16 (has 2 objects)
% Step 1: Moved object 16 -> 15
% Step 1: Distribution: [0, 0, 0, 1, 1, 0, 0, 0, 0, 0, 0, 1, 0, 1, 1, 1, 0, 0, 0, 0, 0, 0, 0, 0, 0, 0]
% Step 2: Selected target node 4 (has 1 objects)
% Step 2: Moved object 4 -> 15
% Step 2: Distribution: [0, 0, 0, 0, 1, 0, 0, 0, 0, 0, 0, 1, 0, 1, 2, 1, 0, 0, 0, 0, 0, 0, 0, 0, 0, 0]
% Step 3: Selected target node 5 (has 1 objects)
% Step 3: Moved object 5 -> 9
% Step 3: Distribution: [0, 0, 0, 0, 0, 0, 0, 0, 1, 0, 0, 1, 0, 1, 2, 1, 0, 0, 0, 0, 0, 0, 0, 0, 0, 0]
% Step 4: Selected target node 14 (has 1 objects)
% Step 4: Moved object 14 -> 9
% Step 4: Distribution: [0, 0, 0, 0, 0, 0, 0, 0, 2, 0, 0, 1, 0, 0, 2, 1, 0, 0, 0, 0, 0, 0, 0, 0, 0, 0]
% Step 5: Selected target node 12 (has 1 objects)
% Step 5: Moved object 12 -> 25
% Step 5: Distribution: [0, 0, 0, 0, 0, 0, 0, 0, 2, 0, 0, 0, 0, 0, 2, 1, 0, 0, 0, 0, 0, 0, 0, 0, 1, 0]
% Step 6: Selected target node 16 (has 1 objects)
% Step 6: Moved object 16 -> 7
% Step 6: Distribution: [0, 0, 0, 0, 0, 0, 1, 0, 2, 0, 0, 0, 0, 0, 2, 0, 0, 0, 0, 0, 0, 0, 0, 0, 1, 0]
% Step 7: Selected non-target node 25 (has 1 objects)
% Step 7: Avoiding backtrack to node 12
% Step 7: Moved object 25 -> 15
% Step 7: Distribution: [0, 0, 0, 0, 0, 0, 1, 0, 2, 0, 0, 0, 0, 0, 3, 0, 0, 0, 0, 0, 0, 0, 0, 0, 0, 0]
% Step 8: Selected non-target node 15 (has 3 objects)
% Step 8: Avoiding backtrack to node 25
% Step 8: Moved object 15 -> 7
% Step 8: Distribution: [0, 0, 0, 0, 0, 0, 2, 0, 2, 0, 0, 0, 0, 0, 2, 0, 0, 0, 0, 0, 0, 0, 0, 0, 0, 0]
% Truck starting position: 1
