% instance_n18_c3_k11_i57.dzn
% Generated instance for the Trucks problem
% N=18, h=4, k=11

% Number of nodes
N = 18;

% Number of objects
h = 4;

% Maximum plan length
%k = 11;

% Adjacency matrix (0-based internal, will be converted to 1-based)
Adj = [|0, 0, 1, 1, 0, 0, 0, 1, 1, 0, 0, 0, 0, 0, 1, 0, 1, 0
      |0, 0, 0, 0, 0, 0, 0, 0, 1, 0, 0, 0, 0, 0, 0, 0, 0, 1
      |1, 0, 0, 0, 0, 0, 0, 0, 0, 0, 0, 0, 0, 0, 0, 0, 0, 0
      |1, 0, 0, 0, 0, 0, 0, 0, 0, 0, 0, 0, 0, 0, 1, 0, 0, 0
      |0, 0, 0, 0, 0, 1, 0, 0, 0, 0, 0, 0, 0, 0, 0, 1, 0, 0
      |0, 0, 0, 0, 1, 0, 0, 0, 0, 0, 0, 0, 0, 0, 0, 0, 1, 0
      |0, 0, 0, 0, 0, 0, 0, 0, 1, 0, 0, 1, 0, 1, 0, 0, 0, 0
      |1, 0, 0, 0, 0, 0, 0, 0, 0, 0, 1, 0, 1, 0, 0, 0, 0, 0
      |1, 1, 0, 0, 0, 0, 1, 0, 0, 0, 0, 0, 1, 0, 0, 0, 0, 0
      |0, 0, 0, 0, 0, 0, 0, 0, 0, 0, 0, 0, 0, 0, 0, 0, 1, 0
      |0, 0, 0, 0, 0, 0, 0, 1, 0, 0, 0, 0, 0, 0, 0, 0, 0, 0
      |0, 0, 0, 0, 0, 0, 1, 0, 0, 0, 0, 0, 0, 0, 1, 0, 0, 0
      |0, 0, 0, 0, 0, 0, 0, 1, 1, 0, 0, 0, 0, 0, 0, 0, 0, 0
      |0, 0, 0, 0, 0, 0, 1, 0, 0, 0, 0, 0, 0, 0, 1, 0, 0, 0
      |1, 0, 0, 1, 0, 0, 0, 0, 0, 0, 0, 1, 0, 1, 0, 1, 0, 0
      |0, 0, 0, 0, 1, 0, 0, 0, 0, 0, 0, 0, 0, 0, 1, 0, 1, 0
      |1, 0, 0, 0, 0, 1, 0, 0, 0, 1, 0, 0, 0, 0, 0, 1, 0, 0
      |0, 1, 0, 0, 0, 0, 0, 0, 0, 0, 0, 0, 0, 0, 0, 0, 0, 0
      |];

% Weights matrix (edge weights)
% Weights = [|0, 0, 1, 1, 0, 0, 0, 1, 2, 0, 0, 0, 0, 0, 5, 0, 3, 0
%           |0, 0, 0, 0, 0, 0, 0, 0, 2, 0, 0, 0, 0, 0, 0, 0, 0, 3
%           |1, 0, 0, 0, 0, 0, 0, 0, 0, 0, 0, 0, 0, 0, 0, 0, 0, 0
%           |1, 0, 0, 0, 0, 0, 0, 0, 0, 0, 0, 0, 0, 0, 5, 0, 0, 0
%           |0, 0, 0, 0, 0, 2, 0, 0, 0, 0, 0, 0, 0, 0, 0, 5, 0, 0
%           |0, 0, 0, 0, 2, 0, 0, 0, 0, 0, 0, 0, 0, 0, 0, 0, 4, 0
%           |0, 0, 0, 0, 0, 0, 0, 0, 2, 0, 0, 4, 0, 5, 0, 0, 0, 0
%           |1, 0, 0, 0, 0, 0, 0, 0, 0, 0, 3, 0, 1, 0, 0, 0, 0, 0
%           |2, 2, 0, 0, 0, 0, 2, 0, 0, 0, 0, 0, 1, 0, 0, 0, 0, 0
%           |0, 0, 0, 0, 0, 0, 0, 0, 0, 0, 0, 0, 0, 0, 0, 0, 1, 0
%           |0, 0, 0, 0, 0, 0, 0, 3, 0, 0, 0, 0, 0, 0, 0, 0, 0, 0
%           |0, 0, 0, 0, 0, 0, 4, 0, 0, 0, 0, 0, 0, 0, 2, 0, 0, 0
%           |0, 0, 0, 0, 0, 0, 0, 1, 1, 0, 0, 0, 0, 0, 0, 0, 0, 0
%           |0, 0, 0, 0, 0, 0, 5, 0, 0, 0, 0, 0, 0, 0, 4, 0, 0, 0
%           |5, 0, 0, 5, 0, 0, 0, 0, 0, 0, 0, 2, 0, 4, 0, 3, 0, 0
%           |0, 0, 0, 0, 5, 0, 0, 0, 0, 0, 0, 0, 0, 0, 3, 0, 4, 0
%           |3, 0, 0, 0, 0, 4, 0, 0, 0, 1, 0, 0, 0, 0, 0, 4, 0, 0
%           |0, 3, 0, 0, 0, 0, 0, 0, 0, 0, 0, 0, 0, 0, 0, 0, 0, 0
%           |];

% Distance matrix
Dist = [|0, 4, 1, 1, 9, 7, 4, 1, 2, 4, 4, 7, 2, 9, 5, 7, 3, 7
      |4, 0, 5, 5, 13, 11, 4, 4, 2, 8, 7, 8, 3, 9, 9, 11, 7, 3
      |1, 5, 0, 2, 10, 8, 5, 2, 3, 5, 5, 8, 3, 10, 6, 8, 4, 8
      |1, 5, 2, 0, 10, 8, 5, 2, 3, 5, 5, 7, 3, 9, 5, 8, 4, 8
      |9, 13, 10, 10, 0, 2, 13, 10, 11, 7, 13, 10, 11, 12, 8, 5, 6, 16
      |7, 11, 8, 8, 2, 0, 11, 8, 9, 5, 11, 12, 9, 14, 10, 7, 4, 14
      |4, 4, 5, 5, 13, 11, 0, 4, 2, 8, 7, 4, 3, 5, 6, 9, 7, 7
      |1, 4, 2, 2, 10, 8, 4, 0, 2, 5, 3, 8, 1, 9, 6, 8, 4, 7
      |2, 2, 3, 3, 11, 9, 2, 2, 0, 6, 5, 6, 1, 7, 7, 9, 5, 5
      |4, 8, 5, 5, 7, 5, 8, 5, 6, 0, 8, 10, 6, 12, 8, 5, 1, 11
      |4, 7, 5, 5, 13, 11, 7, 3, 5, 8, 0, 11, 4, 12, 9, 11, 7, 10
      |7, 8, 8, 7, 10, 12, 4, 8, 6, 10, 11, 0, 7, 6, 2, 5, 9, 11
      |2, 3, 3, 3, 11, 9, 3, 1, 1, 6, 4, 7, 0, 8, 7, 9, 5, 6
      |9, 9, 10, 9, 12, 14, 5, 9, 7, 12, 12, 6, 8, 0, 4, 7, 11, 12
      |5, 9, 6, 5, 8, 10, 6, 6, 7, 8, 9, 2, 7, 4, 0, 3, 7, 12
      |7, 11, 8, 8, 5, 7, 9, 8, 9, 5, 11, 5, 9, 7, 3, 0, 4, 14
      |3, 7, 4, 4, 6, 4, 7, 4, 5, 1, 7, 9, 5, 11, 7, 4, 0, 10
      |7, 3, 8, 8, 16, 14, 7, 7, 5, 11, 10, 11, 6, 12, 12, 14, 10, 0
      |];

% Initial object distribution
S_init = [0, 0, 0, 0, 0, 0, 0, 1, 0, 1, 0, 0, 0, 0, 0, 0, 1, 1];

% Target nodes (1 if target, 0 otherwise)
T = [1, 0, 0, 0, 0, 1, 1, 0, 0, 0, 0, 0, 0, 0, 0, 0, 0, 0];

% Initial truck position (1-based indexing)
u = 7;

% --- DEBUG TRACE ---
% --- GENERATION TRACE (Backwards from Target) ---
% Initial distribution (all on targets): [1, 0, 0, 0, 0, 2, 1, 0, 0, 0, 0, 0, 0, 0, 0, 0, 0, 0]
% Step 1: Selected target node 6 (has 2 objects)
% Step 1: Moved object 6 -> 17
% Step 1: Distribution: [1, 0, 0, 0, 0, 1, 1, 0, 0, 0, 0, 0, 0, 0, 0, 0, 1, 0]
% Step 2: Selected target node 7 (has 1 objects)
% Step 2: Moved object 7 -> 9
% Step 2: Distribution: [1, 0, 0, 0, 0, 1, 0, 0, 1, 0, 0, 0, 0, 0, 0, 0, 1, 0]
% Step 3: Selected target node 6 (has 1 objects)
% Step 3: Moved object 6 -> 17
% Step 3: Distribution: [1, 0, 0, 0, 0, 0, 0, 0, 1, 0, 0, 0, 0, 0, 0, 0, 2, 0]
% Step 4: Selected target node 1 (has 1 objects)
% Step 4: Moved object 1 -> 9
% Step 4: Distribution: [0, 0, 0, 0, 0, 0, 0, 0, 2, 0, 0, 0, 0, 0, 0, 0, 2, 0]
% Step 5: Selected non-target node 9 (has 2 objects)
% Step 5: Avoiding backtrack to node 1
% Step 5: Moved object 9 -> 13
% Step 5: Distribution: [0, 0, 0, 0, 0, 0, 0, 0, 1, 0, 0, 0, 1, 0, 0, 0, 2, 0]
% Step 6: Selected non-target node 13 (has 1 objects)
% Step 6: Avoiding backtrack to node 9
% Step 6: Moved object 13 -> 8
% Step 6: Distribution: [0, 0, 0, 0, 0, 0, 0, 1, 1, 0, 0, 0, 0, 0, 0, 0, 2, 0]
% Step 7: Selected non-target node 9 (has 1 objects)
% Step 7: Avoiding backtrack to node 1
% Step 7: Moved object 9 -> 2
% Step 7: Distribution: [0, 1, 0, 0, 0, 0, 0, 1, 0, 0, 0, 0, 0, 0, 0, 0, 2, 0]
% Step 8: Selected non-target node 8 (has 1 objects)
% Step 8: Avoiding backtrack to node 13
% Step 8: Moved object 8 -> 11
% Step 8: Distribution: [0, 1, 0, 0, 0, 0, 0, 0, 0, 0, 1, 0, 0, 0, 0, 0, 2, 0]
% Step 9: Selected non-target node 11 (has 1 objects)
% Step 9: Moved object 11 -> 8
% Step 9: Distribution: [0, 1, 0, 0, 0, 0, 0, 1, 0, 0, 0, 0, 0, 0, 0, 0, 2, 0]
% Step 10: Selected non-target node 17 (has 2 objects)
% Step 10: Avoiding backtrack to node 6
% Step 10: Moved object 17 -> 10
% Step 10: Distribution: [0, 1, 0, 0, 0, 0, 0, 1, 0, 1, 0, 0, 0, 0, 0, 0, 1, 0]
% Step 11: Selected non-target node 2 (has 1 objects)
% Step 11: Avoiding backtrack to node 9
% Step 11: Moved object 2 -> 18
% Step 11: Distribution: [0, 0, 0, 0, 0, 0, 0, 1, 0, 1, 0, 0, 0, 0, 0, 0, 1, 1]
% Truck starting position: 7
