% instance_n22_c3_k8_i76.dzn
% Generated instance for the Trucks problem
% N=22, h=5, k=8

% Number of nodes
N = 22;

% Number of objects
h = 5;

% Maximum plan length
%k = 8;

% Adjacency matrix (0-based internal, will be converted to 1-based)
Adj = [|0, 0, 0, 0, 0, 0, 1, 1, 0, 0, 0, 0, 1, 1, 0, 0, 0, 0, 0, 0, 0, 1
      |0, 0, 0, 0, 0, 0, 1, 0, 0, 0, 0, 0, 0, 0, 0, 1, 0, 0, 0, 0, 0, 0
      |0, 0, 0, 0, 0, 0, 0, 0, 0, 0, 0, 0, 0, 0, 0, 0, 0, 0, 0, 0, 1, 1
      |0, 0, 0, 0, 0, 0, 0, 0, 0, 0, 0, 1, 0, 0, 0, 0, 0, 0, 0, 0, 0, 0
      |0, 0, 0, 0, 0, 0, 1, 0, 0, 0, 1, 0, 0, 1, 0, 0, 0, 0, 0, 0, 0, 0
      |0, 0, 0, 0, 0, 0, 0, 0, 0, 0, 0, 0, 0, 0, 1, 0, 0, 0, 0, 1, 0, 0
      |1, 1, 0, 0, 1, 0, 0, 0, 1, 1, 0, 0, 0, 0, 0, 0, 0, 0, 0, 0, 0, 0
      |1, 0, 0, 0, 0, 0, 0, 0, 0, 0, 0, 0, 0, 0, 1, 0, 0, 0, 0, 0, 0, 0
      |0, 0, 0, 0, 0, 0, 1, 0, 0, 0, 0, 0, 0, 0, 0, 0, 0, 0, 0, 0, 0, 0
      |0, 0, 0, 0, 0, 0, 1, 0, 0, 0, 0, 0, 0, 0, 0, 0, 1, 0, 0, 0, 0, 0
      |0, 0, 0, 0, 1, 0, 0, 0, 0, 0, 0, 0, 0, 0, 0, 0, 0, 0, 0, 0, 0, 0
      |0, 0, 0, 1, 0, 0, 0, 0, 0, 0, 0, 0, 0, 0, 1, 0, 1, 1, 0, 0, 0, 0
      |1, 0, 0, 0, 0, 0, 0, 0, 0, 0, 0, 0, 0, 0, 0, 0, 0, 0, 1, 0, 1, 0
      |1, 0, 0, 0, 1, 0, 0, 0, 0, 0, 0, 0, 0, 0, 1, 0, 0, 1, 0, 0, 0, 0
      |0, 0, 0, 0, 0, 1, 0, 1, 0, 0, 0, 1, 0, 1, 0, 0, 0, 0, 0, 0, 0, 0
      |0, 1, 0, 0, 0, 0, 0, 0, 0, 0, 0, 0, 0, 0, 0, 0, 0, 0, 0, 0, 0, 1
      |0, 0, 0, 0, 0, 0, 0, 0, 0, 1, 0, 1, 0, 0, 0, 0, 0, 0, 0, 0, 0, 0
      |0, 0, 0, 0, 0, 0, 0, 0, 0, 0, 0, 1, 0, 1, 0, 0, 0, 0, 0, 0, 1, 1
      |0, 0, 0, 0, 0, 0, 0, 0, 0, 0, 0, 0, 1, 0, 0, 0, 0, 0, 0, 0, 0, 0
      |0, 0, 0, 0, 0, 1, 0, 0, 0, 0, 0, 0, 0, 0, 0, 0, 0, 0, 0, 0, 0, 0
      |0, 0, 1, 0, 0, 0, 0, 0, 0, 0, 0, 0, 1, 0, 0, 0, 0, 1, 0, 0, 0, 0
      |1, 0, 1, 0, 0, 0, 0, 0, 0, 0, 0, 0, 0, 0, 0, 1, 0, 1, 0, 0, 0, 0
      |];

% Weights matrix (edge weights)
% Weights = [|0, 0, 0, 0, 0, 0, 4, 4, 0, 0, 0, 0, 5, 3, 0, 0, 0, 0, 0, 0, 0, 5
%           |0, 0, 0, 0, 0, 0, 4, 0, 0, 0, 0, 0, 0, 0, 0, 1, 0, 0, 0, 0, 0, 0
%           |0, 0, 0, 0, 0, 0, 0, 0, 0, 0, 0, 0, 0, 0, 0, 0, 0, 0, 0, 0, 5, 4
%           |0, 0, 0, 0, 0, 0, 0, 0, 0, 0, 0, 1, 0, 0, 0, 0, 0, 0, 0, 0, 0, 0
%           |0, 0, 0, 0, 0, 0, 4, 0, 0, 0, 3, 0, 0, 2, 0, 0, 0, 0, 0, 0, 0, 0
%           |0, 0, 0, 0, 0, 0, 0, 0, 0, 0, 0, 0, 0, 0, 3, 0, 0, 0, 0, 1, 0, 0
%           |4, 4, 0, 0, 4, 0, 0, 0, 2, 5, 0, 0, 0, 0, 0, 0, 0, 0, 0, 0, 0, 0
%           |4, 0, 0, 0, 0, 0, 0, 0, 0, 0, 0, 0, 0, 0, 2, 0, 0, 0, 0, 0, 0, 0
%           |0, 0, 0, 0, 0, 0, 2, 0, 0, 0, 0, 0, 0, 0, 0, 0, 0, 0, 0, 0, 0, 0
%           |0, 0, 0, 0, 0, 0, 5, 0, 0, 0, 0, 0, 0, 0, 0, 0, 2, 0, 0, 0, 0, 0
%           |0, 0, 0, 0, 3, 0, 0, 0, 0, 0, 0, 0, 0, 0, 0, 0, 0, 0, 0, 0, 0, 0
%           |0, 0, 0, 1, 0, 0, 0, 0, 0, 0, 0, 0, 0, 0, 2, 0, 3, 1, 0, 0, 0, 0
%           |5, 0, 0, 0, 0, 0, 0, 0, 0, 0, 0, 0, 0, 0, 0, 0, 0, 0, 2, 0, 1, 0
%           |3, 0, 0, 0, 2, 0, 0, 0, 0, 0, 0, 0, 0, 0, 1, 0, 0, 4, 0, 0, 0, 0
%           |0, 0, 0, 0, 0, 3, 0, 2, 0, 0, 0, 2, 0, 1, 0, 0, 0, 0, 0, 0, 0, 0
%           |0, 1, 0, 0, 0, 0, 0, 0, 0, 0, 0, 0, 0, 0, 0, 0, 0, 0, 0, 0, 0, 1
%           |0, 0, 0, 0, 0, 0, 0, 0, 0, 2, 0, 3, 0, 0, 0, 0, 0, 0, 0, 0, 0, 0
%           |0, 0, 0, 0, 0, 0, 0, 0, 0, 0, 0, 1, 0, 4, 0, 0, 0, 0, 0, 0, 4, 5
%           |0, 0, 0, 0, 0, 0, 0, 0, 0, 0, 0, 0, 2, 0, 0, 0, 0, 0, 0, 0, 0, 0
%           |0, 0, 0, 0, 0, 1, 0, 0, 0, 0, 0, 0, 0, 0, 0, 0, 0, 0, 0, 0, 0, 0
%           |0, 0, 5, 0, 0, 0, 0, 0, 0, 0, 0, 0, 1, 0, 0, 0, 0, 4, 0, 0, 0, 0
%           |5, 0, 4, 0, 0, 0, 0, 0, 0, 0, 0, 0, 0, 0, 0, 1, 0, 5, 0, 0, 0, 0
%           |];

% Distance matrix
Dist = [|0, 7, 9, 7, 5, 7, 4, 4, 6, 9, 8, 6, 5, 3, 4, 6, 9, 7, 7, 8, 6, 5
      |7, 0, 6, 9, 8, 13, 4, 11, 6, 9, 11, 8, 12, 10, 10, 1, 11, 7, 14, 14, 11, 2
      |9, 6, 0, 11, 14, 15, 10, 13, 12, 15, 17, 10, 6, 12, 12, 5, 13, 9, 8, 16, 5, 4
      |7, 9, 11, 0, 6, 6, 10, 5, 12, 6, 9, 1, 7, 4, 3, 8, 4, 2, 9, 7, 6, 7
      |5, 8, 14, 6, 0, 6, 4, 5, 6, 9, 3, 5, 10, 2, 3, 9, 8, 6, 12, 7, 10, 10
      |7, 13, 15, 6, 6, 0, 10, 5, 12, 10, 9, 5, 11, 4, 3, 12, 8, 6, 13, 1, 10, 11
      |4, 4, 10, 10, 4, 10, 0, 8, 2, 5, 7, 9, 9, 6, 7, 5, 7, 10, 11, 11, 10, 6
      |4, 11, 13, 5, 5, 5, 8, 0, 10, 9, 8, 4, 9, 3, 2, 10, 7, 5, 11, 6, 9, 9
      |6, 6, 12, 12, 6, 12, 2, 10, 0, 7, 9, 11, 11, 8, 9, 7, 9, 12, 13, 13, 12, 8
      |9, 9, 15, 6, 9, 10, 5, 9, 7, 0, 12, 5, 11, 8, 7, 10, 2, 6, 13, 11, 10, 11
      |8, 11, 17, 9, 3, 9, 7, 8, 9, 12, 0, 8, 13, 5, 6, 12, 11, 9, 15, 10, 13, 13
      |6, 8, 10, 1, 5, 5, 9, 4, 11, 5, 8, 0, 6, 3, 2, 7, 3, 1, 8, 6, 5, 6
      |5, 12, 6, 7, 10, 11, 9, 9, 11, 11, 13, 6, 0, 8, 8, 11, 9, 5, 2, 12, 1, 10
      |3, 10, 12, 4, 2, 4, 6, 3, 8, 8, 5, 3, 8, 0, 1, 9, 6, 4, 10, 5, 8, 8
      |4, 10, 12, 3, 3, 3, 7, 2, 9, 7, 6, 2, 8, 1, 0, 9, 5, 3, 10, 4, 7, 8
      |6, 1, 5, 8, 9, 12, 5, 10, 7, 10, 12, 7, 11, 9, 9, 0, 10, 6, 13, 13, 10, 1
      |9, 11, 13, 4, 8, 8, 7, 7, 9, 2, 11, 3, 9, 6, 5, 10, 0, 4, 11, 9, 8, 9
      |7, 7, 9, 2, 6, 6, 10, 5, 12, 6, 9, 1, 5, 4, 3, 6, 4, 0, 7, 7, 4, 5
      |7, 14, 8, 9, 12, 13, 11, 11, 13, 13, 15, 8, 2, 10, 10, 13, 11, 7, 0, 14, 3, 12
      |8, 14, 16, 7, 7, 1, 11, 6, 13, 11, 10, 6, 12, 5, 4, 13, 9, 7, 14, 0, 11, 12
      |6, 11, 5, 6, 10, 10, 10, 9, 12, 10, 13, 5, 1, 8, 7, 10, 8, 4, 3, 11, 0, 9
      |5, 2, 4, 7, 10, 11, 6, 9, 8, 11, 13, 6, 10, 8, 8, 1, 9, 5, 12, 12, 9, 0
      |];

% Initial object distribution
S_init = [2, 0, 1, 0, 0, 0, 0, 0, 0, 0, 0, 2, 0, 0, 0, 0, 0, 0, 0, 0, 0, 0];

% Target nodes (1 if target, 0 otherwise)
T = [0, 0, 0, 0, 0, 0, 0, 1, 0, 0, 0, 0, 0, 0, 0, 0, 1, 0, 0, 0, 1, 1];

% Initial truck position (1-based indexing)
u = 13;

% --- DEBUG TRACE ---
% --- GENERATION TRACE (Backwards from Target) ---
% Initial distribution (all on targets): [0, 0, 0, 0, 0, 0, 0, 1, 0, 0, 0, 0, 0, 0, 0, 0, 1, 0, 0, 0, 2, 1]
% Step 1: Selected target node 21 (has 2 objects)
% Step 1: Moved object 21 -> 18
% Step 1: Distribution: [0, 0, 0, 0, 0, 0, 0, 1, 0, 0, 0, 0, 0, 0, 0, 0, 1, 1, 0, 0, 1, 1]
% Step 2: Selected target node 8 (has 1 objects)
% Step 2: Moved object 8 -> 1
% Step 2: Distribution: [1, 0, 0, 0, 0, 0, 0, 0, 0, 0, 0, 0, 0, 0, 0, 0, 1, 1, 0, 0, 1, 1]
% Step 3: Selected target node 22 (has 1 objects)
% Step 3: Moved object 22 -> 1
% Step 3: Distribution: [2, 0, 0, 0, 0, 0, 0, 0, 0, 0, 0, 0, 0, 0, 0, 0, 1, 1, 0, 0, 1, 0]
% Step 4: Selected target node 17 (has 1 objects)
% Step 4: Moved object 17 -> 12
% Step 4: Distribution: [2, 0, 0, 0, 0, 0, 0, 0, 0, 0, 0, 1, 0, 0, 0, 0, 0, 1, 0, 0, 1, 0]
% Step 5: Selected target node 21 (has 1 objects)
% Step 5: Moved object 21 -> 3
% Step 5: Distribution: [2, 0, 1, 0, 0, 0, 0, 0, 0, 0, 0, 1, 0, 0, 0, 0, 0, 1, 0, 0, 0, 0]
% Step 6: Selected non-target node 18 (has 1 objects)
% Step 6: Avoiding backtrack to node 21
% Step 6: Moved object 18 -> 12
% Step 6: Distribution: [2, 0, 1, 0, 0, 0, 0, 0, 0, 0, 0, 2, 0, 0, 0, 0, 0, 0, 0, 0, 0, 0]
% Step 7: Selected non-target node 12 (has 2 objects)
% Step 7: Avoiding backtrack to node 18
% Step 7: Moved object 12 -> 4
% Step 7: Distribution: [2, 0, 1, 1, 0, 0, 0, 0, 0, 0, 0, 1, 0, 0, 0, 0, 0, 0, 0, 0, 0, 0]
% Step 8: Selected non-target node 4 (has 1 objects)
% Step 8: Moved object 4 -> 12
% Step 8: Distribution: [2, 0, 1, 0, 0, 0, 0, 0, 0, 0, 0, 2, 0, 0, 0, 0, 0, 0, 0, 0, 0, 0]
% Truck starting position: 13
