% instance_n10_c2_k5_i10.dzn
% Generated instance for the Trucks problem
% N=10, h=3, k=5

% Number of nodes
N = 10;

% Number of objects
h = 3;

% Maximum plan length
%k = 5;

% Adjacency matrix (0-based internal, will be converted to 1-based)
Adj = [|0, 0, 1, 1, 0, 0, 0, 0, 0, 0
      |0, 0, 0, 1, 0, 0, 1, 0, 0, 0
      |1, 0, 0, 0, 0, 0, 0, 0, 0, 1
      |1, 1, 0, 0, 1, 0, 0, 1, 1, 0
      |0, 0, 0, 1, 0, 0, 0, 1, 0, 0
      |0, 0, 0, 0, 0, 0, 0, 1, 0, 1
      |0, 1, 0, 0, 0, 0, 0, 0, 0, 0
      |0, 0, 0, 1, 1, 1, 0, 0, 0, 1
      |0, 0, 0, 1, 0, 0, 0, 0, 0, 1
      |0, 0, 1, 0, 0, 1, 0, 1, 1, 0
      |];

% Weights matrix (edge weights)
% Weights = [|0, 0, 2, 5, 0, 0, 0, 0, 0, 0
%           |0, 0, 0, 2, 0, 0, 4, 0, 0, 0
%           |2, 0, 0, 0, 0, 0, 0, 0, 0, 5
%           |5, 2, 0, 0, 3, 0, 0, 3, 4, 0
%           |0, 0, 0, 3, 0, 0, 0, 3, 0, 0
%           |0, 0, 0, 0, 0, 0, 0, 3, 0, 3
%           |0, 4, 0, 0, 0, 0, 0, 0, 0, 0
%           |0, 0, 0, 3, 3, 3, 0, 0, 0, 3
%           |0, 0, 0, 4, 0, 0, 0, 0, 0, 5
%           |0, 0, 5, 0, 0, 3, 0, 3, 5, 0
%           |];

% Distance matrix
Dist = [|0, 7, 2, 5, 8, 10, 11, 8, 9, 7
      |7, 0, 9, 2, 5, 8, 4, 5, 6, 8
      |2, 9, 0, 7, 10, 8, 13, 8, 10, 5
      |5, 2, 7, 0, 3, 6, 6, 3, 4, 6
      |8, 5, 10, 3, 0, 6, 9, 3, 7, 6
      |10, 8, 8, 6, 6, 0, 12, 3, 8, 3
      |11, 4, 13, 6, 9, 12, 0, 9, 10, 12
      |8, 5, 8, 3, 3, 3, 9, 0, 7, 3
      |9, 6, 10, 4, 7, 8, 10, 7, 0, 5
      |7, 8, 5, 6, 6, 3, 12, 3, 5, 0
      |];

% Initial object distribution
S_init = [0, 0, 1, 0, 0, 0, 0, 1, 0, 1];

% Target nodes (1 if target, 0 otherwise)
T = [0, 0, 0, 1, 1, 0, 0, 0, 1, 0];

% Initial truck position (1-based indexing)
u = 3;

% --- DEBUG TRACE ---
% --- GENERATION TRACE (Backwards from Target) ---
% Initial distribution (all on targets): [0, 0, 0, 1, 1, 0, 0, 0, 1, 0]
% Step 1: Selected target node 5 (has 1 objects)
% Step 1: Moved object 5 -> 8
% Step 1: Distribution: [0, 0, 0, 1, 0, 0, 0, 1, 1, 0]
% Step 2: Selected target node 9 (has 1 objects)
% Step 2: Moved object 9 -> 10
% Step 2: Distribution: [0, 0, 0, 1, 0, 0, 0, 1, 0, 1]
% Step 3: Selected target node 4 (has 1 objects)
% Step 3: Moved object 4 -> 8
% Step 3: Distribution: [0, 0, 0, 0, 0, 0, 0, 2, 0, 1]
% Step 4: Selected non-target node 8 (has 2 objects)
% Step 4: Avoiding backtrack to node 4
% Step 4: Moved object 8 -> 10
% Step 4: Distribution: [0, 0, 0, 0, 0, 0, 0, 1, 0, 2]
% Step 5: Selected non-target node 10 (has 2 objects)
% Step 5: Avoiding backtrack to node 8
% Step 5: Moved object 10 -> 3
% Step 5: Distribution: [0, 0, 1, 0, 0, 0, 0, 1, 0, 1]
% Truck starting position: 3
