% instance_n18_c0_k8_i41.dzn
% Generated instance for the Trucks problem
% N=18, h=4, k=8

% Number of nodes
N = 18;

% Number of objects
h = 4;

% Maximum plan length
%k = 8;

% Adjacency matrix (0-based internal, will be converted to 1-based)
Adj = [|0, 0, 0, 0, 0, 0, 0, 0, 0, 1, 0, 0, 0, 1, 1, 1, 0, 0
      |0, 0, 1, 0, 1, 0, 0, 0, 0, 0, 0, 0, 0, 0, 0, 0, 0, 0
      |0, 1, 0, 0, 0, 1, 0, 1, 0, 0, 0, 0, 0, 0, 0, 0, 0, 1
      |0, 0, 0, 0, 0, 0, 0, 0, 0, 0, 0, 1, 0, 0, 0, 0, 0, 0
      |0, 1, 0, 0, 0, 1, 1, 0, 0, 0, 0, 0, 0, 0, 0, 0, 0, 0
      |0, 0, 1, 0, 1, 0, 0, 0, 0, 0, 0, 0, 0, 0, 1, 0, 1, 0
      |0, 0, 0, 0, 1, 0, 0, 0, 0, 0, 0, 1, 0, 0, 0, 0, 0, 0
      |0, 0, 1, 0, 0, 0, 0, 0, 0, 1, 1, 0, 0, 0, 0, 1, 0, 0
      |0, 0, 0, 0, 0, 0, 0, 0, 0, 1, 0, 1, 0, 0, 0, 0, 0, 0
      |1, 0, 0, 0, 0, 0, 0, 1, 1, 0, 0, 1, 0, 0, 0, 0, 0, 0
      |0, 0, 0, 0, 0, 0, 0, 1, 0, 0, 0, 0, 1, 0, 0, 0, 0, 0
      |0, 0, 0, 1, 0, 0, 1, 0, 1, 1, 0, 0, 0, 0, 0, 0, 0, 0
      |0, 0, 0, 0, 0, 0, 0, 0, 0, 0, 1, 0, 0, 0, 0, 0, 0, 0
      |1, 0, 0, 0, 0, 0, 0, 0, 0, 0, 0, 0, 0, 0, 0, 0, 0, 0
      |1, 0, 0, 0, 0, 1, 0, 0, 0, 0, 0, 0, 0, 0, 0, 0, 0, 0
      |1, 0, 0, 0, 0, 0, 0, 1, 0, 0, 0, 0, 0, 0, 0, 0, 0, 0
      |0, 0, 0, 0, 0, 1, 0, 0, 0, 0, 0, 0, 0, 0, 0, 0, 0, 0
      |0, 0, 1, 0, 0, 0, 0, 0, 0, 0, 0, 0, 0, 0, 0, 0, 0, 0
      |];

% Weights matrix (edge weights)
% Weights = [|0, 0, 0, 0, 0, 0, 0, 0, 0, 5, 0, 0, 0, 2, 2, 5, 0, 0
%           |0, 0, 4, 0, 4, 0, 0, 0, 0, 0, 0, 0, 0, 0, 0, 0, 0, 0
%           |0, 4, 0, 0, 0, 1, 0, 5, 0, 0, 0, 0, 0, 0, 0, 0, 0, 4
%           |0, 0, 0, 0, 0, 0, 0, 0, 0, 0, 0, 2, 0, 0, 0, 0, 0, 0
%           |0, 4, 0, 0, 0, 5, 3, 0, 0, 0, 0, 0, 0, 0, 0, 0, 0, 0
%           |0, 0, 1, 0, 5, 0, 0, 0, 0, 0, 0, 0, 0, 0, 3, 0, 2, 0
%           |0, 0, 0, 0, 3, 0, 0, 0, 0, 0, 0, 1, 0, 0, 0, 0, 0, 0
%           |0, 0, 5, 0, 0, 0, 0, 0, 0, 3, 4, 0, 0, 0, 0, 1, 0, 0
%           |0, 0, 0, 0, 0, 0, 0, 0, 0, 4, 0, 4, 0, 0, 0, 0, 0, 0
%           |5, 0, 0, 0, 0, 0, 0, 3, 4, 0, 0, 2, 0, 0, 0, 0, 0, 0
%           |0, 0, 0, 0, 0, 0, 0, 4, 0, 0, 0, 0, 2, 0, 0, 0, 0, 0
%           |0, 0, 0, 2, 0, 0, 1, 0, 4, 2, 0, 0, 0, 0, 0, 0, 0, 0
%           |0, 0, 0, 0, 0, 0, 0, 0, 0, 0, 2, 0, 0, 0, 0, 0, 0, 0
%           |2, 0, 0, 0, 0, 0, 0, 0, 0, 0, 0, 0, 0, 0, 0, 0, 0, 0
%           |2, 0, 0, 0, 0, 3, 0, 0, 0, 0, 0, 0, 0, 0, 0, 0, 0, 0
%           |5, 0, 0, 0, 0, 0, 0, 1, 0, 0, 0, 0, 0, 0, 0, 0, 0, 0
%           |0, 0, 0, 0, 0, 2, 0, 0, 0, 0, 0, 0, 0, 0, 0, 0, 0, 0
%           |0, 0, 4, 0, 0, 0, 0, 0, 0, 0, 0, 0, 0, 0, 0, 0, 0, 0
%           |];

% Distance matrix
Dist = [|0, 10, 6, 9, 10, 5, 8, 6, 9, 5, 10, 7, 12, 2, 2, 5, 7, 10
      |10, 0, 4, 10, 4, 5, 7, 9, 12, 10, 13, 8, 15, 12, 8, 10, 7, 8
      |6, 4, 0, 12, 6, 1, 9, 5, 12, 8, 9, 10, 11, 8, 4, 6, 3, 4
      |9, 10, 12, 0, 6, 11, 3, 7, 6, 4, 11, 2, 13, 11, 11, 8, 13, 16
      |10, 4, 6, 6, 0, 5, 3, 9, 8, 6, 13, 4, 15, 12, 8, 10, 7, 10
      |5, 5, 1, 11, 5, 0, 8, 6, 13, 9, 10, 9, 12, 7, 3, 7, 2, 5
      |8, 7, 9, 3, 3, 8, 0, 6, 5, 3, 10, 1, 12, 10, 10, 7, 10, 13
      |6, 9, 5, 7, 9, 6, 6, 0, 7, 3, 4, 5, 6, 8, 8, 1, 8, 9
      |9, 12, 12, 6, 8, 13, 5, 7, 0, 4, 11, 4, 13, 11, 11, 8, 15, 16
      |5, 10, 8, 4, 6, 9, 3, 3, 4, 0, 7, 2, 9, 7, 7, 4, 11, 12
      |10, 13, 9, 11, 13, 10, 10, 4, 11, 7, 0, 9, 2, 12, 12, 5, 12, 13
      |7, 8, 10, 2, 4, 9, 1, 5, 4, 2, 9, 0, 11, 9, 9, 6, 11, 14
      |12, 15, 11, 13, 15, 12, 12, 6, 13, 9, 2, 11, 0, 14, 14, 7, 14, 15
      |2, 12, 8, 11, 12, 7, 10, 8, 11, 7, 12, 9, 14, 0, 4, 7, 9, 12
      |2, 8, 4, 11, 8, 3, 10, 8, 11, 7, 12, 9, 14, 4, 0, 7, 5, 8
      |5, 10, 6, 8, 10, 7, 7, 1, 8, 4, 5, 6, 7, 7, 7, 0, 9, 10
      |7, 7, 3, 13, 7, 2, 10, 8, 15, 11, 12, 11, 14, 9, 5, 9, 0, 7
      |10, 8, 4, 16, 10, 5, 13, 9, 16, 12, 13, 14, 15, 12, 8, 10, 7, 0
      |];

% Initial object distribution
S_init = [1, 0, 1, 0, 0, 0, 1, 0, 0, 1, 0, 0, 0, 0, 0, 0, 0, 0];

% Target nodes (1 if target, 0 otherwise)
T = [0, 0, 0, 0, 1, 1, 0, 0, 0, 0, 0, 1, 0, 0, 0, 1, 0, 0];

% Initial truck position (1-based indexing)
u = 7;

% --- DEBUG TRACE ---
% --- GENERATION TRACE (Backwards from Target) ---
% Initial distribution (all on targets): [0, 0, 0, 0, 1, 1, 0, 0, 0, 0, 0, 1, 0, 0, 0, 1, 0, 0]
% Step 1: Selected target node 16 (has 1 objects)
% Step 1: Moved object 16 -> 1
% Step 1: Distribution: [1, 0, 0, 0, 1, 1, 0, 0, 0, 0, 0, 1, 0, 0, 0, 0, 0, 0]
% Step 2: Selected target node 6 (has 1 objects)
% Step 2: Moved object 6 -> 3
% Step 2: Distribution: [1, 0, 1, 0, 1, 0, 0, 0, 0, 0, 0, 1, 0, 0, 0, 0, 0, 0]
% Step 3: Selected target node 5 (has 1 objects)
% Step 3: Moved object 5 -> 7
% Step 3: Distribution: [1, 0, 1, 0, 0, 0, 1, 0, 0, 0, 0, 1, 0, 0, 0, 0, 0, 0]
% Step 4: Selected target node 12 (has 1 objects)
% Step 4: Moved object 12 -> 10
% Step 4: Distribution: [1, 0, 1, 0, 0, 0, 1, 0, 0, 1, 0, 0, 0, 0, 0, 0, 0, 0]
% Step 5: Selected non-target node 7 (has 1 objects)
% Step 5: Selected non-target node 1 (has 1 objects)
% Step 5: Avoiding backtrack to node 16
% Step 5: Moved object 1 -> 14
% Step 5: Distribution: [0, 0, 1, 0, 0, 0, 1, 0, 0, 1, 0, 0, 0, 1, 0, 0, 0, 0]
% Step 6: Selected non-target node 7 (has 1 objects)
% Step 6: Selected non-target node 3 (has 1 objects)
% Step 6: Avoiding backtrack to node 6
% Step 6: Moved object 3 -> 18
% Step 6: Distribution: [0, 0, 0, 0, 0, 0, 1, 0, 0, 1, 0, 0, 0, 1, 0, 0, 0, 1]
% Step 7: Selected non-target node 7 (has 1 objects)
% Step 7: Selected non-target node 18 (has 1 objects)
% Step 7: Moved object 18 -> 3
% Step 7: Distribution: [0, 0, 1, 0, 0, 0, 1, 0, 0, 1, 0, 0, 0, 1, 0, 0, 0, 0]
% Step 8: Selected non-target node 14 (has 1 objects)
% Step 8: Moved object 14 -> 1
% Step 8: Distribution: [1, 0, 1, 0, 0, 0, 1, 0, 0, 1, 0, 0, 0, 0, 0, 0, 0, 0]
% Truck starting position: 7
