% instance_n26_c3_k8_i96.dzn
% Generated instance for the Trucks problem
% N=26, h=6, k=8

% Number of nodes
N = 26;

% Number of objects
h = 6;

% Maximum plan length
%k = 8;

% Adjacency matrix (0-based internal, will be converted to 1-based)
Adj = [|0, 1, 0, 0, 0, 1, 0, 0, 0, 0, 1, 1, 0, 0, 1, 0, 0, 0, 0, 1, 1, 0, 0, 0, 0, 0
      |1, 0, 0, 0, 0, 0, 0, 0, 0, 0, 0, 0, 0, 0, 0, 0, 0, 0, 0, 0, 0, 0, 0, 0, 0, 0
      |0, 0, 0, 0, 0, 0, 0, 0, 0, 0, 0, 0, 1, 0, 0, 0, 0, 0, 0, 0, 0, 0, 0, 0, 0, 0
      |0, 0, 0, 0, 0, 0, 0, 0, 0, 0, 0, 1, 0, 0, 0, 1, 0, 1, 0, 0, 0, 0, 0, 0, 0, 0
      |0, 0, 0, 0, 0, 0, 0, 0, 0, 1, 0, 1, 0, 0, 0, 0, 1, 0, 0, 0, 0, 1, 0, 0, 0, 0
      |1, 0, 0, 0, 0, 0, 1, 1, 0, 0, 0, 1, 0, 0, 0, 0, 0, 0, 0, 0, 0, 0, 0, 0, 0, 0
      |0, 0, 0, 0, 0, 1, 0, 1, 0, 0, 0, 0, 0, 0, 0, 0, 0, 0, 0, 0, 0, 0, 0, 0, 1, 0
      |0, 0, 0, 0, 0, 1, 1, 0, 0, 0, 0, 0, 0, 0, 0, 0, 0, 0, 0, 0, 0, 0, 0, 0, 1, 0
      |0, 0, 0, 0, 0, 0, 0, 0, 0, 1, 0, 0, 0, 0, 0, 0, 0, 0, 0, 0, 0, 0, 0, 0, 0, 0
      |0, 0, 0, 0, 1, 0, 0, 0, 1, 0, 0, 0, 0, 0, 0, 0, 0, 0, 0, 0, 0, 0, 0, 0, 0, 0
      |1, 0, 0, 0, 0, 0, 0, 0, 0, 0, 0, 0, 0, 0, 0, 0, 0, 0, 0, 0, 0, 0, 0, 0, 0, 0
      |1, 0, 0, 1, 1, 1, 0, 0, 0, 0, 0, 0, 0, 0, 0, 0, 0, 0, 1, 0, 0, 0, 1, 1, 0, 0
      |0, 0, 1, 0, 0, 0, 0, 0, 0, 0, 0, 0, 0, 0, 0, 0, 0, 0, 1, 0, 0, 0, 0, 0, 0, 0
      |0, 0, 0, 0, 0, 0, 0, 0, 0, 0, 0, 0, 0, 0, 0, 0, 0, 0, 0, 0, 0, 1, 0, 0, 0, 1
      |1, 0, 0, 0, 0, 0, 0, 0, 0, 0, 0, 0, 0, 0, 0, 0, 0, 0, 0, 0, 0, 0, 0, 0, 0, 0
      |0, 0, 0, 1, 0, 0, 0, 0, 0, 0, 0, 0, 0, 0, 0, 0, 0, 0, 1, 0, 0, 0, 0, 0, 0, 0
      |0, 0, 0, 0, 1, 0, 0, 0, 0, 0, 0, 0, 0, 0, 0, 0, 0, 0, 0, 0, 0, 0, 0, 1, 0, 0
      |0, 0, 0, 1, 0, 0, 0, 0, 0, 0, 0, 0, 0, 0, 0, 0, 0, 0, 0, 0, 0, 0, 0, 0, 0, 1
      |0, 0, 0, 0, 0, 0, 0, 0, 0, 0, 0, 1, 1, 0, 0, 1, 0, 0, 0, 0, 0, 0, 1, 0, 0, 0
      |1, 0, 0, 0, 0, 0, 0, 0, 0, 0, 0, 0, 0, 0, 0, 0, 0, 0, 0, 0, 0, 0, 0, 0, 0, 0
      |1, 0, 0, 0, 0, 0, 0, 0, 0, 0, 0, 0, 0, 0, 0, 0, 0, 0, 0, 0, 0, 0, 1, 0, 0, 0
      |0, 0, 0, 0, 1, 0, 0, 0, 0, 0, 0, 0, 0, 1, 0, 0, 0, 0, 0, 0, 0, 0, 0, 0, 1, 0
      |0, 0, 0, 0, 0, 0, 0, 0, 0, 0, 0, 1, 0, 0, 0, 0, 0, 0, 1, 0, 1, 0, 0, 0, 0, 0
      |0, 0, 0, 0, 0, 0, 0, 0, 0, 0, 0, 1, 0, 0, 0, 0, 1, 0, 0, 0, 0, 0, 0, 0, 0, 0
      |0, 0, 0, 0, 0, 0, 1, 1, 0, 0, 0, 0, 0, 0, 0, 0, 0, 0, 0, 0, 0, 1, 0, 0, 0, 0
      |0, 0, 0, 0, 0, 0, 0, 0, 0, 0, 0, 0, 0, 1, 0, 0, 0, 1, 0, 0, 0, 0, 0, 0, 0, 0
      |];

% Weights matrix (edge weights)
% Weights = [|0, 4, 0, 0, 0, 5, 0, 0, 0, 0, 5, 4, 0, 0, 3, 0, 0, 0, 0, 3, 4, 0, 0, 0, 0, 0
%           |4, 0, 0, 0, 0, 0, 0, 0, 0, 0, 0, 0, 0, 0, 0, 0, 0, 0, 0, 0, 0, 0, 0, 0, 0, 0
%           |0, 0, 0, 0, 0, 0, 0, 0, 0, 0, 0, 0, 3, 0, 0, 0, 0, 0, 0, 0, 0, 0, 0, 0, 0, 0
%           |0, 0, 0, 0, 0, 0, 0, 0, 0, 0, 0, 1, 0, 0, 0, 1, 0, 5, 0, 0, 0, 0, 0, 0, 0, 0
%           |0, 0, 0, 0, 0, 0, 0, 0, 0, 5, 0, 3, 0, 0, 0, 0, 2, 0, 0, 0, 0, 1, 0, 0, 0, 0
%           |5, 0, 0, 0, 0, 0, 3, 2, 0, 0, 0, 5, 0, 0, 0, 0, 0, 0, 0, 0, 0, 0, 0, 0, 0, 0
%           |0, 0, 0, 0, 0, 3, 0, 5, 0, 0, 0, 0, 0, 0, 0, 0, 0, 0, 0, 0, 0, 0, 0, 0, 1, 0
%           |0, 0, 0, 0, 0, 2, 5, 0, 0, 0, 0, 0, 0, 0, 0, 0, 0, 0, 0, 0, 0, 0, 0, 0, 2, 0
%           |0, 0, 0, 0, 0, 0, 0, 0, 0, 4, 0, 0, 0, 0, 0, 0, 0, 0, 0, 0, 0, 0, 0, 0, 0, 0
%           |0, 0, 0, 0, 5, 0, 0, 0, 4, 0, 0, 0, 0, 0, 0, 0, 0, 0, 0, 0, 0, 0, 0, 0, 0, 0
%           |5, 0, 0, 0, 0, 0, 0, 0, 0, 0, 0, 0, 0, 0, 0, 0, 0, 0, 0, 0, 0, 0, 0, 0, 0, 0
%           |4, 0, 0, 1, 3, 5, 0, 0, 0, 0, 0, 0, 0, 0, 0, 0, 0, 0, 2, 0, 0, 0, 3, 4, 0, 0
%           |0, 0, 3, 0, 0, 0, 0, 0, 0, 0, 0, 0, 0, 0, 0, 0, 0, 0, 5, 0, 0, 0, 0, 0, 0, 0
%           |0, 0, 0, 0, 0, 0, 0, 0, 0, 0, 0, 0, 0, 0, 0, 0, 0, 0, 0, 0, 0, 1, 0, 0, 0, 4
%           |3, 0, 0, 0, 0, 0, 0, 0, 0, 0, 0, 0, 0, 0, 0, 0, 0, 0, 0, 0, 0, 0, 0, 0, 0, 0
%           |0, 0, 0, 1, 0, 0, 0, 0, 0, 0, 0, 0, 0, 0, 0, 0, 0, 0, 2, 0, 0, 0, 0, 0, 0, 0
%           |0, 0, 0, 0, 2, 0, 0, 0, 0, 0, 0, 0, 0, 0, 0, 0, 0, 0, 0, 0, 0, 0, 0, 4, 0, 0
%           |0, 0, 0, 5, 0, 0, 0, 0, 0, 0, 0, 0, 0, 0, 0, 0, 0, 0, 0, 0, 0, 0, 0, 0, 0, 3
%           |0, 0, 0, 0, 0, 0, 0, 0, 0, 0, 0, 2, 5, 0, 0, 2, 0, 0, 0, 0, 0, 0, 1, 0, 0, 0
%           |3, 0, 0, 0, 0, 0, 0, 0, 0, 0, 0, 0, 0, 0, 0, 0, 0, 0, 0, 0, 0, 0, 0, 0, 0, 0
%           |4, 0, 0, 0, 0, 0, 0, 0, 0, 0, 0, 0, 0, 0, 0, 0, 0, 0, 0, 0, 0, 0, 3, 0, 0, 0
%           |0, 0, 0, 0, 1, 0, 0, 0, 0, 0, 0, 0, 0, 1, 0, 0, 0, 0, 0, 0, 0, 0, 0, 0, 5, 0
%           |0, 0, 0, 0, 0, 0, 0, 0, 0, 0, 0, 3, 0, 0, 0, 0, 0, 0, 1, 0, 3, 0, 0, 0, 0, 0
%           |0, 0, 0, 0, 0, 0, 0, 0, 0, 0, 0, 4, 0, 0, 0, 0, 4, 0, 0, 0, 0, 0, 0, 0, 0, 0
%           |0, 0, 0, 0, 0, 0, 1, 2, 0, 0, 0, 0, 0, 0, 0, 0, 0, 0, 0, 0, 0, 5, 0, 0, 0, 0
%           |0, 0, 0, 0, 0, 0, 0, 0, 0, 0, 0, 0, 0, 4, 0, 0, 0, 3, 0, 0, 0, 0, 0, 0, 0, 0
%           |];

% Distance matrix
Dist = [|0, 4, 14, 5, 7, 5, 8, 7, 16, 12, 5, 4, 11, 9, 3, 6, 9, 10, 6, 3, 4, 8, 7, 8, 9, 13
      |4, 0, 18, 9, 11, 9, 12, 11, 20, 16, 9, 8, 15, 13, 7, 10, 13, 14, 10, 7, 8, 12, 11, 12, 13, 17
      |14, 18, 0, 11, 13, 15, 18, 17, 22, 18, 19, 10, 3, 15, 17, 10, 15, 16, 8, 17, 12, 14, 9, 14, 19, 19
      |5, 9, 11, 0, 4, 6, 9, 8, 13, 9, 10, 1, 8, 6, 8, 1, 6, 5, 3, 8, 7, 5, 4, 5, 10, 8
      |7, 11, 13, 4, 0, 8, 7, 8, 9, 5, 12, 3, 10, 2, 10, 5, 2, 9, 5, 10, 9, 1, 6, 6, 6, 6
      |5, 9, 15, 6, 8, 0, 3, 2, 17, 13, 10, 5, 12, 10, 8, 7, 10, 11, 7, 8, 9, 9, 8, 9, 4, 14
      |8, 12, 18, 9, 7, 3, 0, 3, 16, 12, 13, 8, 15, 7, 11, 10, 9, 14, 10, 11, 12, 6, 11, 12, 1, 11
      |7, 11, 17, 8, 8, 2, 3, 0, 17, 13, 12, 7, 14, 8, 10, 9, 10, 13, 9, 10, 11, 7, 10, 11, 2, 12
      |16, 20, 22, 13, 9, 17, 16, 17, 0, 4, 21, 12, 19, 11, 19, 14, 11, 18, 14, 19, 18, 10, 15, 15, 15, 15
      |12, 16, 18, 9, 5, 13, 12, 13, 4, 0, 17, 8, 15, 7, 15, 10, 7, 14, 10, 15, 14, 6, 11, 11, 11, 11
      |5, 9, 19, 10, 12, 10, 13, 12, 21, 17, 0, 9, 16, 14, 8, 11, 14, 15, 11, 8, 9, 13, 12, 13, 14, 18
      |4, 8, 10, 1, 3, 5, 8, 7, 12, 8, 9, 0, 7, 5, 7, 2, 5, 6, 2, 7, 6, 4, 3, 4, 9, 9
      |11, 15, 3, 8, 10, 12, 15, 14, 19, 15, 16, 7, 0, 12, 14, 7, 12, 13, 5, 14, 9, 11, 6, 11, 16, 16
      |9, 13, 15, 6, 2, 10, 7, 8, 11, 7, 14, 5, 12, 0, 12, 7, 4, 7, 7, 12, 11, 1, 8, 8, 6, 4
      |3, 7, 17, 8, 10, 8, 11, 10, 19, 15, 8, 7, 14, 12, 0, 9, 12, 13, 9, 6, 7, 11, 10, 11, 12, 16
      |6, 10, 10, 1, 5, 7, 10, 9, 14, 10, 11, 2, 7, 7, 9, 0, 7, 6, 2, 9, 6, 6, 3, 6, 11, 9
      |9, 13, 15, 6, 2, 10, 9, 10, 11, 7, 14, 5, 12, 4, 12, 7, 0, 11, 7, 12, 11, 3, 8, 4, 8, 8
      |10, 14, 16, 5, 9, 11, 14, 13, 18, 14, 15, 6, 13, 7, 13, 6, 11, 0, 8, 13, 12, 8, 9, 10, 13, 3
      |6, 10, 8, 3, 5, 7, 10, 9, 14, 10, 11, 2, 5, 7, 9, 2, 7, 8, 0, 9, 4, 6, 1, 6, 11, 11
      |3, 7, 17, 8, 10, 8, 11, 10, 19, 15, 8, 7, 14, 12, 6, 9, 12, 13, 9, 0, 7, 11, 10, 11, 12, 16
      |4, 8, 12, 7, 9, 9, 12, 11, 18, 14, 9, 6, 9, 11, 7, 6, 11, 12, 4, 7, 0, 10, 3, 10, 13, 15
      |8, 12, 14, 5, 1, 9, 6, 7, 10, 6, 13, 4, 11, 1, 11, 6, 3, 8, 6, 11, 10, 0, 7, 7, 5, 5
      |7, 11, 9, 4, 6, 8, 11, 10, 15, 11, 12, 3, 6, 8, 10, 3, 8, 9, 1, 10, 3, 7, 0, 7, 12, 12
      |8, 12, 14, 5, 6, 9, 12, 11, 15, 11, 13, 4, 11, 8, 11, 6, 4, 10, 6, 11, 10, 7, 7, 0, 12, 12
      |9, 13, 19, 10, 6, 4, 1, 2, 15, 11, 14, 9, 16, 6, 12, 11, 8, 13, 11, 12, 13, 5, 12, 12, 0, 10
      |13, 17, 19, 8, 6, 14, 11, 12, 15, 11, 18, 9, 16, 4, 16, 9, 8, 3, 11, 16, 15, 5, 12, 12, 10, 0
      |];

% Initial object distribution
S_init = [0, 0, 0, 1, 0, 0, 0, 0, 0, 0, 0, 0, 0, 0, 2, 0, 1, 0, 0, 0, 2, 0, 0, 0, 0, 0];

% Target nodes (1 if target, 0 otherwise)
T = [1, 0, 0, 0, 0, 0, 0, 0, 0, 0, 0, 0, 0, 0, 1, 0, 0, 0, 0, 0, 0, 0, 0, 0, 0, 1];

% Initial truck position (1-based indexing)
u = 20;

% --- DEBUG TRACE ---
% --- GENERATION TRACE (Backwards from Target) ---
% Initial distribution (all on targets): [2, 0, 0, 0, 0, 0, 0, 0, 0, 0, 0, 0, 0, 0, 2, 0, 0, 0, 0, 0, 0, 0, 0, 0, 0, 2]
% Step 1: Selected target node 26 (has 2 objects)
% Step 1: Moved object 26 -> 18
% Step 1: Distribution: [2, 0, 0, 0, 0, 0, 0, 0, 0, 0, 0, 0, 0, 0, 2, 0, 0, 1, 0, 0, 0, 0, 0, 0, 0, 1]
% Step 2: Selected target node 1 (has 2 objects)
% Step 2: Moved object 1 -> 21
% Step 2: Distribution: [1, 0, 0, 0, 0, 0, 0, 0, 0, 0, 0, 0, 0, 0, 2, 0, 0, 1, 0, 0, 1, 0, 0, 0, 0, 1]
% Step 3: Selected target node 1 (has 1 objects)
% Step 3: Moved object 1 -> 21
% Step 3: Distribution: [0, 0, 0, 0, 0, 0, 0, 0, 0, 0, 0, 0, 0, 0, 2, 0, 0, 1, 0, 0, 2, 0, 0, 0, 0, 1]
% Step 4: Selected target node 26 (has 1 objects)
% Step 4: Moved object 26 -> 14
% Step 4: Distribution: [0, 0, 0, 0, 0, 0, 0, 0, 0, 0, 0, 0, 0, 1, 2, 0, 0, 1, 0, 0, 2, 0, 0, 0, 0, 0]
% Step 5: Selected target node 15 (has 2 objects)
% Step 5: Selected non-target node 14 (has 1 objects)
% Step 5: Avoiding backtrack to node 26
% Step 5: Moved object 14 -> 22
% Step 5: Distribution: [0, 0, 0, 0, 0, 0, 0, 0, 0, 0, 0, 0, 0, 0, 2, 0, 0, 1, 0, 0, 2, 1, 0, 0, 0, 0]
% Step 6: Selected target node 15 (has 2 objects)
% Step 6: Selected non-target node 18 (has 1 objects)
% Step 6: Avoiding backtrack to node 26
% Step 6: Moved object 18 -> 4
% Step 6: Distribution: [0, 0, 0, 1, 0, 0, 0, 0, 0, 0, 0, 0, 0, 0, 2, 0, 0, 0, 0, 0, 2, 1, 0, 0, 0, 0]
% Step 7: Selected target node 15 (has 2 objects)
% Step 7: Selected non-target node 22 (has 1 objects)
% Step 7: Avoiding backtrack to node 14
% Step 7: Moved object 22 -> 5
% Step 7: Distribution: [0, 0, 0, 1, 1, 0, 0, 0, 0, 0, 0, 0, 0, 0, 2, 0, 0, 0, 0, 0, 2, 0, 0, 0, 0, 0]
% Step 8: Selected target node 15 (has 2 objects)
% Step 8: Selected non-target node 5 (has 1 objects)
% Step 8: Avoiding backtrack to node 22
% Step 8: Moved object 5 -> 17
% Step 8: Distribution: [0, 0, 0, 1, 0, 0, 0, 0, 0, 0, 0, 0, 0, 0, 2, 0, 1, 0, 0, 0, 2, 0, 0, 0, 0, 0]
% Truck starting position: 20
