% instance_n18_c1_k5_i45.dzn
% Generated instance for the Trucks problem
% N=18, h=4, k=5

% Number of nodes
N = 18;

% Number of objects
h = 4;

% Maximum plan length
%k = 5;

% Adjacency matrix (0-based internal, will be converted to 1-based)
Adj = [|0, 0, 0, 0, 1, 0, 1, 0, 1, 1, 0, 1, 0, 0, 0, 0, 0, 0
      |0, 0, 1, 0, 0, 0, 0, 0, 0, 0, 0, 1, 0, 1, 0, 0, 0, 0
      |0, 1, 0, 1, 1, 1, 0, 1, 1, 0, 0, 0, 0, 0, 0, 0, 0, 0
      |0, 0, 1, 0, 0, 0, 1, 0, 0, 0, 0, 0, 0, 0, 0, 0, 1, 1
      |1, 0, 1, 0, 0, 0, 0, 0, 0, 0, 1, 0, 0, 0, 0, 1, 0, 0
      |0, 0, 1, 0, 0, 0, 0, 0, 0, 1, 0, 0, 0, 0, 0, 0, 0, 1
      |1, 0, 0, 1, 0, 0, 0, 0, 0, 0, 0, 0, 1, 0, 0, 0, 0, 0
      |0, 0, 1, 0, 0, 0, 0, 0, 0, 0, 0, 0, 0, 0, 1, 0, 0, 0
      |1, 0, 1, 0, 0, 0, 0, 0, 0, 0, 0, 0, 0, 0, 1, 0, 0, 0
      |1, 0, 0, 0, 0, 1, 0, 0, 0, 0, 0, 0, 0, 0, 0, 0, 0, 0
      |0, 0, 0, 0, 1, 0, 0, 0, 0, 0, 0, 0, 0, 0, 0, 0, 0, 0
      |1, 1, 0, 0, 0, 0, 0, 0, 0, 0, 0, 0, 0, 0, 0, 0, 0, 0
      |0, 0, 0, 0, 0, 0, 1, 0, 0, 0, 0, 0, 0, 0, 0, 1, 0, 0
      |0, 1, 0, 0, 0, 0, 0, 0, 0, 0, 0, 0, 0, 0, 0, 0, 0, 0
      |0, 0, 0, 0, 0, 0, 0, 1, 1, 0, 0, 0, 0, 0, 0, 0, 0, 0
      |0, 0, 0, 0, 1, 0, 0, 0, 0, 0, 0, 0, 1, 0, 0, 0, 0, 0
      |0, 0, 0, 1, 0, 0, 0, 0, 0, 0, 0, 0, 0, 0, 0, 0, 0, 0
      |0, 0, 0, 1, 0, 1, 0, 0, 0, 0, 0, 0, 0, 0, 0, 0, 0, 0
      |];

% Weights matrix (edge weights)
% Weights = [|0, 0, 0, 0, 4, 0, 4, 0, 5, 2, 0, 1, 0, 0, 0, 0, 0, 0
%           |0, 0, 1, 0, 0, 0, 0, 0, 0, 0, 0, 1, 0, 5, 0, 0, 0, 0
%           |0, 1, 0, 2, 2, 2, 0, 1, 2, 0, 0, 0, 0, 0, 0, 0, 0, 0
%           |0, 0, 2, 0, 0, 0, 2, 0, 0, 0, 0, 0, 0, 0, 0, 0, 5, 4
%           |4, 0, 2, 0, 0, 0, 0, 0, 0, 0, 2, 0, 0, 0, 0, 1, 0, 0
%           |0, 0, 2, 0, 0, 0, 0, 0, 0, 4, 0, 0, 0, 0, 0, 0, 0, 4
%           |4, 0, 0, 2, 0, 0, 0, 0, 0, 0, 0, 0, 5, 0, 0, 0, 0, 0
%           |0, 0, 1, 0, 0, 0, 0, 0, 0, 0, 0, 0, 0, 0, 3, 0, 0, 0
%           |5, 0, 2, 0, 0, 0, 0, 0, 0, 0, 0, 0, 0, 0, 1, 0, 0, 0
%           |2, 0, 0, 0, 0, 4, 0, 0, 0, 0, 0, 0, 0, 0, 0, 0, 0, 0
%           |0, 0, 0, 0, 2, 0, 0, 0, 0, 0, 0, 0, 0, 0, 0, 0, 0, 0
%           |1, 1, 0, 0, 0, 0, 0, 0, 0, 0, 0, 0, 0, 0, 0, 0, 0, 0
%           |0, 0, 0, 0, 0, 0, 5, 0, 0, 0, 0, 0, 0, 0, 0, 2, 0, 0
%           |0, 5, 0, 0, 0, 0, 0, 0, 0, 0, 0, 0, 0, 0, 0, 0, 0, 0
%           |0, 0, 0, 0, 0, 0, 0, 3, 1, 0, 0, 0, 0, 0, 0, 0, 0, 0
%           |0, 0, 0, 0, 1, 0, 0, 0, 0, 0, 0, 0, 2, 0, 0, 0, 0, 0
%           |0, 0, 0, 5, 0, 0, 0, 0, 0, 0, 0, 0, 0, 0, 0, 0, 0, 0
%           |0, 0, 0, 4, 0, 4, 0, 0, 0, 0, 0, 0, 0, 0, 0, 0, 0, 0
%           |];

% Distance matrix
Dist = [|0, 2, 3, 5, 4, 5, 4, 4, 5, 2, 6, 1, 7, 7, 6, 5, 10, 9
      |2, 0, 1, 3, 3, 3, 5, 2, 3, 4, 5, 1, 6, 5, 4, 4, 8, 7
      |3, 1, 0, 2, 2, 2, 4, 1, 2, 5, 4, 2, 5, 6, 3, 3, 7, 6
      |5, 3, 2, 0, 4, 4, 2, 3, 4, 7, 6, 4, 7, 8, 5, 5, 5, 4
      |4, 3, 2, 4, 0, 4, 6, 3, 4, 6, 2, 4, 3, 8, 5, 1, 9, 8
      |5, 3, 2, 4, 4, 0, 6, 3, 4, 4, 6, 4, 7, 8, 5, 5, 9, 4
      |4, 5, 4, 2, 6, 6, 0, 5, 6, 6, 8, 5, 5, 10, 7, 7, 7, 6
      |4, 2, 1, 3, 3, 3, 5, 0, 3, 6, 5, 3, 6, 7, 3, 4, 8, 7
      |5, 3, 2, 4, 4, 4, 6, 3, 0, 7, 6, 4, 7, 8, 1, 5, 9, 8
      |2, 4, 5, 7, 6, 4, 6, 6, 7, 0, 8, 3, 9, 9, 8, 7, 12, 8
      |6, 5, 4, 6, 2, 6, 8, 5, 6, 8, 0, 6, 5, 10, 7, 3, 11, 10
      |1, 1, 2, 4, 4, 4, 5, 3, 4, 3, 6, 0, 7, 6, 5, 5, 9, 8
      |7, 6, 5, 7, 3, 7, 5, 6, 7, 9, 5, 7, 0, 11, 8, 2, 12, 11
      |7, 5, 6, 8, 8, 8, 10, 7, 8, 9, 10, 6, 11, 0, 9, 9, 13, 12
      |6, 4, 3, 5, 5, 5, 7, 3, 1, 8, 7, 5, 8, 9, 0, 6, 10, 9
      |5, 4, 3, 5, 1, 5, 7, 4, 5, 7, 3, 5, 2, 9, 6, 0, 10, 9
      |10, 8, 7, 5, 9, 9, 7, 8, 9, 12, 11, 9, 12, 13, 10, 10, 0, 9
      |9, 7, 6, 4, 8, 4, 6, 7, 8, 8, 10, 8, 11, 12, 9, 9, 9, 0
      |];

% Initial object distribution
S_init = [0, 0, 0, 1, 0, 0, 0, 0, 1, 0, 0, 0, 0, 1, 0, 1, 0, 0];

% Target nodes (1 if target, 0 otherwise)
T = [0, 1, 0, 0, 1, 0, 1, 0, 0, 0, 0, 0, 1, 0, 0, 0, 0, 0];

% Initial truck position (1-based indexing)
u = 1;

% --- DEBUG TRACE ---
% --- GENERATION TRACE (Backwards from Target) ---
% Initial distribution (all on targets): [0, 1, 0, 0, 1, 0, 1, 0, 0, 0, 0, 0, 1, 0, 0, 0, 0, 0]
% Step 1: Selected target node 5 (has 1 objects)
% Step 1: Moved object 5 -> 1
% Step 1: Distribution: [1, 1, 0, 0, 0, 0, 1, 0, 0, 0, 0, 0, 1, 0, 0, 0, 0, 0]
% Step 2: Selected target node 13 (has 1 objects)
% Step 2: Moved object 13 -> 16
% Step 2: Distribution: [1, 1, 0, 0, 0, 0, 1, 0, 0, 0, 0, 0, 0, 0, 0, 1, 0, 0]
% Step 3: Selected target node 2 (has 1 objects)
% Step 3: Moved object 2 -> 14
% Step 3: Distribution: [1, 0, 0, 0, 0, 0, 1, 0, 0, 0, 0, 0, 0, 1, 0, 1, 0, 0]
% Step 4: Selected target node 7 (has 1 objects)
% Step 4: Moved object 7 -> 4
% Step 4: Distribution: [1, 0, 0, 1, 0, 0, 0, 0, 0, 0, 0, 0, 0, 1, 0, 1, 0, 0]
% Step 5: Selected non-target node 14 (has 1 objects)
% Step 5: Selected non-target node 1 (has 1 objects)
% Step 5: Avoiding backtrack to node 5
% Step 5: Moved object 1 -> 9
% Step 5: Distribution: [0, 0, 0, 1, 0, 0, 0, 0, 1, 0, 0, 0, 0, 1, 0, 1, 0, 0]
% Truck starting position: 1
