% instance_n26_c3_k17_i99.dzn
% Generated instance for the Trucks problem
% N=26, h=6, k=17

% Number of nodes
N = 26;

% Number of objects
h = 6;

% Maximum plan length
%k = 17;

% Adjacency matrix (0-based internal, will be converted to 1-based)
Adj = [|0, 0, 0, 0, 1, 0, 1, 0, 0, 1, 0, 0, 0, 0, 0, 0, 0, 0, 0, 0, 0, 1, 0, 0, 0, 0
      |0, 0, 0, 0, 0, 0, 0, 0, 0, 0, 0, 0, 0, 0, 0, 0, 0, 0, 1, 1, 0, 0, 0, 0, 0, 0
      |0, 0, 0, 0, 0, 0, 0, 0, 0, 1, 0, 0, 0, 0, 0, 0, 0, 0, 0, 0, 1, 0, 0, 1, 0, 0
      |0, 0, 0, 0, 0, 0, 0, 0, 0, 0, 0, 0, 0, 0, 0, 0, 1, 0, 0, 0, 0, 0, 0, 0, 0, 0
      |1, 0, 0, 0, 0, 0, 0, 0, 0, 0, 0, 0, 0, 0, 0, 0, 0, 0, 0, 0, 0, 0, 0, 0, 0, 0
      |0, 0, 0, 0, 0, 0, 0, 0, 0, 0, 0, 0, 0, 0, 0, 0, 0, 0, 0, 0, 0, 0, 0, 1, 0, 0
      |1, 0, 0, 0, 0, 0, 0, 0, 0, 0, 1, 0, 0, 0, 0, 0, 0, 0, 0, 0, 0, 0, 0, 0, 0, 0
      |0, 0, 0, 0, 0, 0, 0, 0, 0, 0, 0, 0, 0, 0, 0, 0, 0, 0, 0, 0, 0, 1, 1, 0, 1, 0
      |0, 0, 0, 0, 0, 0, 0, 0, 0, 0, 0, 0, 0, 0, 0, 1, 1, 1, 0, 0, 0, 0, 0, 0, 0, 0
      |1, 0, 1, 0, 0, 0, 0, 0, 0, 0, 0, 0, 0, 0, 0, 0, 1, 0, 0, 0, 0, 0, 0, 0, 1, 0
      |0, 0, 0, 0, 0, 0, 1, 0, 0, 0, 0, 1, 0, 1, 0, 0, 0, 0, 0, 0, 0, 1, 0, 1, 0, 0
      |0, 0, 0, 0, 0, 0, 0, 0, 0, 0, 1, 0, 0, 0, 0, 0, 0, 0, 0, 0, 0, 0, 0, 0, 0, 0
      |0, 0, 0, 0, 0, 0, 0, 0, 0, 0, 0, 0, 0, 0, 0, 0, 1, 0, 0, 0, 0, 0, 0, 0, 0, 0
      |0, 0, 0, 0, 0, 0, 0, 0, 0, 0, 1, 0, 0, 0, 1, 0, 1, 0, 0, 0, 0, 0, 0, 0, 0, 0
      |0, 0, 0, 0, 0, 0, 0, 0, 0, 0, 0, 0, 0, 1, 0, 0, 0, 0, 0, 0, 0, 1, 0, 0, 0, 0
      |0, 0, 0, 0, 0, 0, 0, 0, 1, 0, 0, 0, 0, 0, 0, 0, 0, 0, 0, 0, 0, 0, 1, 0, 0, 0
      |0, 0, 0, 1, 0, 0, 0, 0, 1, 1, 0, 0, 1, 1, 0, 0, 0, 0, 1, 0, 0, 0, 0, 0, 0, 0
      |0, 0, 0, 0, 0, 0, 0, 0, 1, 0, 0, 0, 0, 0, 0, 0, 0, 0, 0, 0, 0, 0, 0, 0, 0, 0
      |0, 1, 0, 0, 0, 0, 0, 0, 0, 0, 0, 0, 0, 0, 0, 0, 1, 0, 0, 0, 0, 1, 0, 0, 0, 1
      |0, 1, 0, 0, 0, 0, 0, 0, 0, 0, 0, 0, 0, 0, 0, 0, 0, 0, 0, 0, 0, 0, 0, 0, 0, 0
      |0, 0, 1, 0, 0, 0, 0, 0, 0, 0, 0, 0, 0, 0, 0, 0, 0, 0, 0, 0, 0, 0, 0, 0, 1, 0
      |1, 0, 0, 0, 0, 0, 0, 1, 0, 0, 1, 0, 0, 0, 1, 0, 0, 0, 1, 0, 0, 0, 0, 0, 0, 0
      |0, 0, 0, 0, 0, 0, 0, 1, 0, 0, 0, 0, 0, 0, 0, 1, 0, 0, 0, 0, 0, 0, 0, 0, 0, 0
      |0, 0, 1, 0, 0, 1, 0, 0, 0, 0, 1, 0, 0, 0, 0, 0, 0, 0, 0, 0, 0, 0, 0, 0, 0, 0
      |0, 0, 0, 0, 0, 0, 0, 1, 0, 1, 0, 0, 0, 0, 0, 0, 0, 0, 0, 0, 1, 0, 0, 0, 0, 0
      |0, 0, 0, 0, 0, 0, 0, 0, 0, 0, 0, 0, 0, 0, 0, 0, 0, 0, 1, 0, 0, 0, 0, 0, 0, 0
      |];

% Weights matrix (edge weights)
% Weights = [|0, 0, 0, 0, 1, 0, 2, 0, 0, 2, 0, 0, 0, 0, 0, 0, 0, 0, 0, 0, 0, 1, 0, 0, 0, 0
%           |0, 0, 0, 0, 0, 0, 0, 0, 0, 0, 0, 0, 0, 0, 0, 0, 0, 0, 4, 5, 0, 0, 0, 0, 0, 0
%           |0, 0, 0, 0, 0, 0, 0, 0, 0, 1, 0, 0, 0, 0, 0, 0, 0, 0, 0, 0, 5, 0, 0, 3, 0, 0
%           |0, 0, 0, 0, 0, 0, 0, 0, 0, 0, 0, 0, 0, 0, 0, 0, 2, 0, 0, 0, 0, 0, 0, 0, 0, 0
%           |1, 0, 0, 0, 0, 0, 0, 0, 0, 0, 0, 0, 0, 0, 0, 0, 0, 0, 0, 0, 0, 0, 0, 0, 0, 0
%           |0, 0, 0, 0, 0, 0, 0, 0, 0, 0, 0, 0, 0, 0, 0, 0, 0, 0, 0, 0, 0, 0, 0, 2, 0, 0
%           |2, 0, 0, 0, 0, 0, 0, 0, 0, 0, 3, 0, 0, 0, 0, 0, 0, 0, 0, 0, 0, 0, 0, 0, 0, 0
%           |0, 0, 0, 0, 0, 0, 0, 0, 0, 0, 0, 0, 0, 0, 0, 0, 0, 0, 0, 0, 0, 3, 5, 0, 2, 0
%           |0, 0, 0, 0, 0, 0, 0, 0, 0, 0, 0, 0, 0, 0, 0, 1, 1, 4, 0, 0, 0, 0, 0, 0, 0, 0
%           |2, 0, 1, 0, 0, 0, 0, 0, 0, 0, 0, 0, 0, 0, 0, 0, 3, 0, 0, 0, 0, 0, 0, 0, 5, 0
%           |0, 0, 0, 0, 0, 0, 3, 0, 0, 0, 0, 3, 0, 1, 0, 0, 0, 0, 0, 0, 0, 5, 0, 1, 0, 0
%           |0, 0, 0, 0, 0, 0, 0, 0, 0, 0, 3, 0, 0, 0, 0, 0, 0, 0, 0, 0, 0, 0, 0, 0, 0, 0
%           |0, 0, 0, 0, 0, 0, 0, 0, 0, 0, 0, 0, 0, 0, 0, 0, 2, 0, 0, 0, 0, 0, 0, 0, 0, 0
%           |0, 0, 0, 0, 0, 0, 0, 0, 0, 0, 1, 0, 0, 0, 3, 0, 4, 0, 0, 0, 0, 0, 0, 0, 0, 0
%           |0, 0, 0, 0, 0, 0, 0, 0, 0, 0, 0, 0, 0, 3, 0, 0, 0, 0, 0, 0, 0, 4, 0, 0, 0, 0
%           |0, 0, 0, 0, 0, 0, 0, 0, 1, 0, 0, 0, 0, 0, 0, 0, 0, 0, 0, 0, 0, 0, 4, 0, 0, 0
%           |0, 0, 0, 2, 0, 0, 0, 0, 1, 3, 0, 0, 2, 4, 0, 0, 0, 0, 4, 0, 0, 0, 0, 0, 0, 0
%           |0, 0, 0, 0, 0, 0, 0, 0, 4, 0, 0, 0, 0, 0, 0, 0, 0, 0, 0, 0, 0, 0, 0, 0, 0, 0
%           |0, 4, 0, 0, 0, 0, 0, 0, 0, 0, 0, 0, 0, 0, 0, 0, 4, 0, 0, 0, 0, 4, 0, 0, 0, 2
%           |0, 5, 0, 0, 0, 0, 0, 0, 0, 0, 0, 0, 0, 0, 0, 0, 0, 0, 0, 0, 0, 0, 0, 0, 0, 0
%           |0, 0, 5, 0, 0, 0, 0, 0, 0, 0, 0, 0, 0, 0, 0, 0, 0, 0, 0, 0, 0, 0, 0, 0, 2, 0
%           |1, 0, 0, 0, 0, 0, 0, 3, 0, 0, 5, 0, 0, 0, 4, 0, 0, 0, 4, 0, 0, 0, 0, 0, 0, 0
%           |0, 0, 0, 0, 0, 0, 0, 5, 0, 0, 0, 0, 0, 0, 0, 4, 0, 0, 0, 0, 0, 0, 0, 0, 0, 0
%           |0, 0, 3, 0, 0, 2, 0, 0, 0, 0, 1, 0, 0, 0, 0, 0, 0, 0, 0, 0, 0, 0, 0, 0, 0, 0
%           |0, 0, 0, 0, 0, 0, 0, 2, 0, 5, 0, 0, 0, 0, 0, 0, 0, 0, 0, 0, 2, 0, 0, 0, 0, 0
%           |0, 0, 0, 0, 0, 0, 0, 0, 0, 0, 0, 0, 0, 0, 0, 0, 0, 0, 2, 0, 0, 0, 0, 0, 0, 0
%           |];

% Distance matrix
Dist = [|0, 9, 3, 7, 1, 8, 2, 4, 6, 2, 5, 8, 7, 6, 5, 7, 5, 10, 5, 14, 8, 1, 9, 6, 6, 7
      |9, 0, 12, 10, 10, 16, 11, 11, 9, 11, 13, 16, 10, 12, 12, 10, 8, 13, 4, 5, 15, 8, 14, 14, 13, 6
      |3, 12, 0, 6, 4, 5, 5, 7, 5, 1, 4, 7, 6, 5, 8, 6, 4, 9, 8, 17, 5, 4, 10, 3, 6, 10
      |7, 10, 6, 0, 8, 10, 9, 11, 3, 5, 7, 10, 4, 6, 9, 4, 2, 7, 6, 15, 11, 8, 8, 8, 10, 8
      |1, 10, 4, 8, 0, 9, 3, 5, 7, 3, 6, 9, 8, 7, 6, 8, 6, 11, 6, 15, 9, 2, 10, 7, 7, 8
      |8, 16, 5, 10, 9, 0, 6, 11, 9, 6, 3, 6, 10, 4, 7, 10, 8, 13, 12, 21, 10, 8, 14, 2, 11, 14
      |2, 11, 5, 9, 3, 6, 0, 6, 8, 4, 3, 6, 9, 4, 7, 9, 7, 12, 7, 16, 10, 3, 11, 4, 8, 9
      |4, 11, 7, 11, 5, 11, 6, 0, 10, 6, 8, 11, 11, 9, 7, 9, 9, 14, 7, 16, 4, 3, 5, 9, 2, 9
      |6, 9, 5, 3, 7, 9, 8, 10, 0, 4, 6, 9, 3, 5, 8, 1, 1, 4, 5, 14, 10, 7, 5, 7, 9, 7
      |2, 11, 1, 5, 3, 6, 4, 6, 4, 0, 5, 8, 5, 6, 7, 5, 3, 8, 7, 16, 6, 3, 9, 4, 5, 9
      |5, 13, 4, 7, 6, 3, 3, 8, 6, 5, 0, 3, 7, 1, 4, 7, 5, 10, 9, 18, 9, 5, 11, 1, 10, 11
      |8, 16, 7, 10, 9, 6, 6, 11, 9, 8, 3, 0, 10, 4, 7, 10, 8, 13, 12, 21, 12, 8, 14, 4, 13, 14
      |7, 10, 6, 4, 8, 10, 9, 11, 3, 5, 7, 10, 0, 6, 9, 4, 2, 7, 6, 15, 11, 8, 8, 8, 10, 8
      |6, 12, 5, 6, 7, 4, 4, 9, 5, 6, 1, 4, 6, 0, 3, 6, 4, 9, 8, 17, 10, 6, 10, 2, 11, 10
      |5, 12, 8, 9, 6, 7, 7, 7, 8, 7, 4, 7, 9, 3, 0, 9, 7, 12, 8, 17, 11, 4, 12, 5, 9, 10
      |7, 10, 6, 4, 8, 10, 9, 9, 1, 5, 7, 10, 4, 6, 9, 0, 2, 5, 6, 15, 11, 8, 4, 8, 10, 8
      |5, 8, 4, 2, 6, 8, 7, 9, 1, 3, 5, 8, 2, 4, 7, 2, 0, 5, 4, 13, 9, 6, 6, 6, 8, 6
      |10, 13, 9, 7, 11, 13, 12, 14, 4, 8, 10, 13, 7, 9, 12, 5, 5, 0, 9, 18, 14, 11, 9, 11, 13, 11
      |5, 4, 8, 6, 6, 12, 7, 7, 5, 7, 9, 12, 6, 8, 8, 6, 4, 9, 0, 9, 11, 4, 10, 10, 9, 2
      |14, 5, 17, 15, 15, 21, 16, 16, 14, 16, 18, 21, 15, 17, 17, 15, 13, 18, 9, 0, 20, 13, 19, 19, 18, 11
      |8, 15, 5, 11, 9, 10, 10, 4, 10, 6, 9, 12, 11, 10, 11, 11, 9, 14, 11, 20, 0, 7, 9, 8, 2, 13
      |1, 8, 4, 8, 2, 8, 3, 3, 7, 3, 5, 8, 8, 6, 4, 8, 6, 11, 4, 13, 7, 0, 8, 6, 5, 6
      |9, 14, 10, 8, 10, 14, 11, 5, 5, 9, 11, 14, 8, 10, 12, 4, 6, 9, 10, 19, 9, 8, 0, 12, 7, 12
      |6, 14, 3, 8, 7, 2, 4, 9, 7, 4, 1, 4, 8, 2, 5, 8, 6, 11, 10, 19, 8, 6, 12, 0, 9, 12
      |6, 13, 6, 10, 7, 11, 8, 2, 9, 5, 10, 13, 10, 11, 9, 10, 8, 13, 9, 18, 2, 5, 7, 9, 0, 11
      |7, 6, 10, 8, 8, 14, 9, 9, 7, 9, 11, 14, 8, 10, 10, 8, 6, 11, 2, 11, 13, 6, 12, 12, 11, 0
      |];

% Initial object distribution
S_init = [0, 0, 1, 0, 0, 0, 0, 0, 0, 1, 2, 0, 0, 0, 0, 0, 0, 0, 0, 0, 0, 1, 0, 1, 0, 0];

% Target nodes (1 if target, 0 otherwise)
T = [0, 0, 0, 0, 0, 0, 1, 0, 0, 0, 0, 0, 0, 0, 0, 0, 0, 0, 0, 0, 0, 0, 1, 0, 1, 0];

% Initial truck position (1-based indexing)
u = 16;

% --- DEBUG TRACE ---
% --- GENERATION TRACE (Backwards from Target) ---
% Initial distribution (all on targets): [0, 0, 0, 0, 0, 0, 2, 0, 0, 0, 0, 0, 0, 0, 0, 0, 0, 0, 0, 0, 0, 0, 2, 0, 2, 0]
% Step 1: Selected target node 7 (has 2 objects)
% Step 1: Moved object 7 -> 11
% Step 1: Distribution: [0, 0, 0, 0, 0, 0, 1, 0, 0, 0, 1, 0, 0, 0, 0, 0, 0, 0, 0, 0, 0, 0, 2, 0, 2, 0]
% Step 2: Selected target node 23 (has 2 objects)
% Step 2: Moved object 23 -> 8
% Step 2: Distribution: [0, 0, 0, 0, 0, 0, 1, 1, 0, 0, 1, 0, 0, 0, 0, 0, 0, 0, 0, 0, 0, 0, 1, 0, 2, 0]
% Step 3: Selected target node 25 (has 2 objects)
% Step 3: Moved object 25 -> 21
% Step 3: Distribution: [0, 0, 0, 0, 0, 0, 1, 1, 0, 0, 1, 0, 0, 0, 0, 0, 0, 0, 0, 0, 1, 0, 1, 0, 1, 0]
% Step 4: Selected target node 25 (has 1 objects)
% Step 4: Moved object 25 -> 21
% Step 4: Distribution: [0, 0, 0, 0, 0, 0, 1, 1, 0, 0, 1, 0, 0, 0, 0, 0, 0, 0, 0, 0, 2, 0, 1, 0, 0, 0]
% Step 5: Selected target node 23 (has 1 objects)
% Step 5: Moved object 23 -> 8
% Step 5: Distribution: [0, 0, 0, 0, 0, 0, 1, 2, 0, 0, 1, 0, 0, 0, 0, 0, 0, 0, 0, 0, 2, 0, 0, 0, 0, 0]
% Step 6: Selected target node 7 (has 1 objects)
% Step 6: Moved object 7 -> 11
% Step 6: Distribution: [0, 0, 0, 0, 0, 0, 0, 2, 0, 0, 2, 0, 0, 0, 0, 0, 0, 0, 0, 0, 2, 0, 0, 0, 0, 0]
% Step 7: Selected non-target node 11 (has 2 objects)
% Step 7: Avoiding backtrack to node 7
% Step 7: Moved object 11 -> 24
% Step 7: Distribution: [0, 0, 0, 0, 0, 0, 0, 2, 0, 0, 1, 0, 0, 0, 0, 0, 0, 0, 0, 0, 2, 0, 0, 1, 0, 0]
% Step 8: Selected non-target node 11 (has 1 objects)
% Step 8: Avoiding backtrack to node 7
% Step 8: Moved object 11 -> 24
% Step 8: Distribution: [0, 0, 0, 0, 0, 0, 0, 2, 0, 0, 0, 0, 0, 0, 0, 0, 0, 0, 0, 0, 2, 0, 0, 2, 0, 0]
% Step 9: Selected non-target node 21 (has 2 objects)
% Step 9: Avoiding backtrack to node 25
% Step 9: Moved object 21 -> 3
% Step 9: Distribution: [0, 0, 1, 0, 0, 0, 0, 2, 0, 0, 0, 0, 0, 0, 0, 0, 0, 0, 0, 0, 1, 0, 0, 2, 0, 0]
% Step 10: Selected non-target node 24 (has 2 objects)
% Step 10: Avoiding backtrack to node 11
% Step 10: Moved object 24 -> 6
% Step 10: Distribution: [0, 0, 1, 0, 0, 1, 0, 2, 0, 0, 0, 0, 0, 0, 0, 0, 0, 0, 0, 0, 1, 0, 0, 1, 0, 0]
% Step 11: Selected non-target node 6 (has 1 objects)
% Step 11: Moved object 6 -> 24
% Step 11: Distribution: [0, 0, 1, 0, 0, 0, 0, 2, 0, 0, 0, 0, 0, 0, 0, 0, 0, 0, 0, 0, 1, 0, 0, 2, 0, 0]
% Step 12: Selected non-target node 21 (has 1 objects)
% Step 12: Avoiding backtrack to node 25
% Step 12: Moved object 21 -> 3
% Step 12: Distribution: [0, 0, 2, 0, 0, 0, 0, 2, 0, 0, 0, 0, 0, 0, 0, 0, 0, 0, 0, 0, 0, 0, 0, 2, 0, 0]
% Step 13: Selected non-target node 8 (has 2 objects)
% Step 13: Avoiding backtrack to node 23
% Step 13: Moved object 8 -> 22
% Step 13: Distribution: [0, 0, 2, 0, 0, 0, 0, 1, 0, 0, 0, 0, 0, 0, 0, 0, 0, 0, 0, 0, 0, 1, 0, 2, 0, 0]
% Step 14: Selected non-target node 24 (has 2 objects)
% Step 14: Avoiding backtrack to node 6
% Step 14: Moved object 24 -> 11
% Step 14: Distribution: [0, 0, 2, 0, 0, 0, 0, 1, 0, 0, 1, 0, 0, 0, 0, 0, 0, 0, 0, 0, 0, 1, 0, 1, 0, 0]
% Step 15: Selected non-target node 22 (has 1 objects)
% Step 15: Avoiding backtrack to node 8
% Step 15: Moved object 22 -> 11
% Step 15: Distribution: [0, 0, 2, 0, 0, 0, 0, 1, 0, 0, 2, 0, 0, 0, 0, 0, 0, 0, 0, 0, 0, 0, 0, 1, 0, 0]
% Step 16: Selected non-target node 8 (has 1 objects)
% Step 16: Avoiding backtrack to node 23
% Step 16: Moved object 8 -> 22
% Step 16: Distribution: [0, 0, 2, 0, 0, 0, 0, 0, 0, 0, 2, 0, 0, 0, 0, 0, 0, 0, 0, 0, 0, 1, 0, 1, 0, 0]
% Step 17: Selected non-target node 3 (has 2 objects)
% Step 17: Avoiding backtrack to node 21
% Step 17: Moved object 3 -> 10
% Step 17: Distribution: [0, 0, 1, 0, 0, 0, 0, 0, 0, 1, 2, 0, 0, 0, 0, 0, 0, 0, 0, 0, 0, 1, 0, 1, 0, 0]
% Truck starting position: 16
