% instance_n10_c1_k14_i8.dzn
% Generated instance for the Trucks problem
% N=10, h=3, k=14

% Number of nodes
N = 10;

% Number of objects
h = 3;

% Maximum plan length
%k = 14;

% Adjacency matrix (0-based internal, will be converted to 1-based)
Adj = [|0, 1, 0, 0, 1, 1, 0, 0, 0, 1
      |1, 0, 0, 0, 0, 0, 1, 0, 0, 0
      |0, 0, 0, 0, 1, 0, 0, 1, 0, 0
      |0, 0, 0, 0, 1, 0, 1, 0, 0, 0
      |1, 0, 1, 1, 0, 0, 0, 0, 1, 0
      |1, 0, 0, 0, 0, 0, 1, 0, 0, 0
      |0, 1, 0, 1, 0, 1, 0, 0, 0, 0
      |0, 0, 1, 0, 0, 0, 0, 0, 0, 0
      |0, 0, 0, 0, 1, 0, 0, 0, 0, 0
      |1, 0, 0, 0, 0, 0, 0, 0, 0, 0
      |];

% Weights matrix (edge weights)
% Weights = [|0, 3, 0, 0, 3, 4, 0, 0, 0, 5
%           |3, 0, 0, 0, 0, 0, 2, 0, 0, 0
%           |0, 0, 0, 0, 4, 0, 0, 3, 0, 0
%           |0, 0, 0, 0, 5, 0, 1, 0, 0, 0
%           |3, 0, 4, 5, 0, 0, 0, 0, 1, 0
%           |4, 0, 0, 0, 0, 0, 2, 0, 0, 0
%           |0, 2, 0, 1, 0, 2, 0, 0, 0, 0
%           |0, 0, 3, 0, 0, 0, 0, 0, 0, 0
%           |0, 0, 0, 0, 1, 0, 0, 0, 0, 0
%           |5, 0, 0, 0, 0, 0, 0, 0, 0, 0
%           |];

% Distance matrix
Dist = [|0, 3, 7, 6, 3, 4, 5, 10, 4, 5
      |3, 0, 10, 3, 6, 4, 2, 13, 7, 8
      |7, 10, 0, 9, 4, 11, 10, 3, 5, 12
      |6, 3, 9, 0, 5, 3, 1, 12, 6, 11
      |3, 6, 4, 5, 0, 7, 6, 7, 1, 8
      |4, 4, 11, 3, 7, 0, 2, 14, 8, 9
      |5, 2, 10, 1, 6, 2, 0, 13, 7, 10
      |10, 13, 3, 12, 7, 14, 13, 0, 8, 15
      |4, 7, 5, 6, 1, 8, 7, 8, 0, 9
      |5, 8, 12, 11, 8, 9, 10, 15, 9, 0
      |];

% Initial object distribution
S_init = [0, 2, 0, 0, 1, 0, 0, 0, 0, 0];

% Target nodes (1 if target, 0 otherwise)
T = [0, 0, 0, 1, 0, 1, 0, 1, 0, 0];

% Initial truck position (1-based indexing)
u = 3;

% --- DEBUG TRACE ---
% --- GENERATION TRACE (Backwards from Target) ---
% Initial distribution (all on targets): [0, 0, 0, 1, 0, 1, 0, 1, 0, 0]
% Step 1: Selected target node 4 (has 1 objects)
% Step 1: Moved object 4 -> 7
% Step 1: Distribution: [0, 0, 0, 0, 0, 1, 1, 1, 0, 0]
% Step 2: Selected target node 8 (has 1 objects)
% Step 2: Moved object 8 -> 3
% Step 2: Distribution: [0, 0, 1, 0, 0, 1, 1, 0, 0, 0]
% Step 3: Selected target node 6 (has 1 objects)
% Step 3: Moved object 6 -> 1
% Step 3: Distribution: [1, 0, 1, 0, 0, 0, 1, 0, 0, 0]
% Step 4: Selected non-target node 7 (has 1 objects)
% Step 4: Avoiding backtrack to node 4
% Step 4: Moved object 7 -> 2
% Step 4: Distribution: [1, 1, 1, 0, 0, 0, 0, 0, 0, 0]
% Step 5: Selected non-target node 3 (has 1 objects)
% Step 5: Avoiding backtrack to node 8
% Step 5: Moved object 3 -> 5
% Step 5: Distribution: [1, 1, 0, 0, 1, 0, 0, 0, 0, 0]
% Step 6: Selected non-target node 2 (has 1 objects)
% Step 6: Avoiding backtrack to node 7
% Step 6: Moved object 2 -> 1
% Step 6: Distribution: [2, 0, 0, 0, 1, 0, 0, 0, 0, 0]
% Step 7: Selected non-target node 1 (has 2 objects)
% Step 7: Avoiding backtrack to node 2
% Step 7: Moved object 1 -> 5
% Step 7: Distribution: [1, 0, 0, 0, 2, 0, 0, 0, 0, 0]
% Step 8: Selected non-target node 1 (has 1 objects)
% Step 8: Avoiding backtrack to node 2
% Step 8: Moved object 1 -> 10
% Step 8: Distribution: [0, 0, 0, 0, 2, 0, 0, 0, 0, 1]
% Step 9: Selected non-target node 10 (has 1 objects)
% Step 9: Moved object 10 -> 1
% Step 9: Distribution: [1, 0, 0, 0, 2, 0, 0, 0, 0, 0]
% Step 10: Selected non-target node 1 (has 1 objects)
% Step 10: Avoiding backtrack to node 10
% Step 10: Moved object 1 -> 2
% Step 10: Distribution: [0, 1, 0, 0, 2, 0, 0, 0, 0, 0]
% Step 11: Selected non-target node 5 (has 2 objects)
% Step 11: Avoiding backtrack to node 1
% Step 11: Moved object 5 -> 9
% Step 11: Distribution: [0, 1, 0, 0, 1, 0, 0, 0, 1, 0]
% Step 12: Selected non-target node 9 (has 1 objects)
% Step 12: Moved object 9 -> 5
% Step 12: Distribution: [0, 1, 0, 0, 2, 0, 0, 0, 0, 0]
% Step 13: Selected non-target node 5 (has 2 objects)
% Step 13: Avoiding backtrack to node 9
% Step 13: Moved object 5 -> 1
% Step 13: Distribution: [1, 1, 0, 0, 1, 0, 0, 0, 0, 0]
% Step 14: Selected non-target node 1 (has 1 objects)
% Step 14: Avoiding backtrack to node 5
% Step 14: Moved object 1 -> 2
% Step 14: Distribution: [0, 2, 0, 0, 1, 0, 0, 0, 0, 0]
% Truck starting position: 3
