% instance_n22_c3_k5_i75.dzn
% Generated instance for the Trucks problem
% N=22, h=5, k=5

% Number of nodes
N = 22;

% Number of objects
h = 5;

% Maximum plan length
%k = 5;

% Adjacency matrix (0-based internal, will be converted to 1-based)
Adj = [|0, 1, 1, 0, 1, 0, 0, 0, 0, 0, 0, 0, 0, 1, 0, 0, 0, 0, 1, 0, 0, 0
      |1, 0, 0, 0, 0, 0, 0, 0, 0, 1, 0, 0, 0, 0, 0, 0, 0, 0, 0, 0, 0, 0
      |1, 0, 0, 0, 0, 0, 0, 0, 0, 0, 0, 0, 0, 0, 0, 0, 0, 0, 1, 0, 0, 0
      |0, 0, 0, 0, 0, 0, 0, 0, 0, 0, 0, 0, 0, 1, 1, 0, 0, 0, 0, 0, 0, 0
      |1, 0, 0, 0, 0, 0, 1, 0, 0, 1, 0, 1, 0, 0, 0, 0, 0, 0, 0, 0, 1, 1
      |0, 0, 0, 0, 0, 0, 0, 0, 0, 0, 0, 0, 1, 0, 0, 0, 0, 0, 0, 0, 0, 0
      |0, 0, 0, 0, 1, 0, 0, 0, 0, 0, 0, 0, 0, 0, 0, 1, 0, 1, 0, 0, 0, 0
      |0, 0, 0, 0, 0, 0, 0, 0, 0, 0, 0, 0, 0, 0, 1, 1, 0, 0, 0, 0, 0, 0
      |0, 0, 0, 0, 0, 0, 0, 0, 0, 0, 0, 0, 0, 0, 0, 1, 0, 0, 0, 0, 0, 0
      |0, 1, 0, 0, 1, 0, 0, 0, 0, 0, 0, 0, 1, 0, 0, 0, 0, 0, 0, 0, 0, 0
      |0, 0, 0, 0, 0, 0, 0, 0, 0, 0, 0, 0, 0, 0, 1, 0, 0, 0, 0, 0, 0, 0
      |0, 0, 0, 0, 1, 0, 0, 0, 0, 0, 0, 0, 0, 0, 1, 0, 0, 0, 0, 0, 0, 0
      |0, 0, 0, 0, 0, 1, 0, 0, 0, 1, 0, 0, 0, 0, 0, 0, 0, 0, 0, 0, 0, 0
      |1, 0, 0, 1, 0, 0, 0, 0, 0, 0, 0, 0, 0, 0, 0, 1, 0, 0, 0, 0, 0, 0
      |0, 0, 0, 1, 0, 0, 0, 1, 0, 0, 1, 1, 0, 0, 0, 0, 0, 0, 0, 1, 0, 0
      |0, 0, 0, 0, 0, 0, 1, 1, 1, 0, 0, 0, 0, 1, 0, 0, 0, 0, 0, 0, 0, 0
      |0, 0, 0, 0, 0, 0, 0, 0, 0, 0, 0, 0, 0, 0, 0, 0, 0, 1, 1, 0, 0, 0
      |0, 0, 0, 0, 0, 0, 1, 0, 0, 0, 0, 0, 0, 0, 0, 0, 1, 0, 0, 0, 0, 0
      |1, 0, 1, 0, 0, 0, 0, 0, 0, 0, 0, 0, 0, 0, 0, 0, 1, 0, 0, 1, 0, 0
      |0, 0, 0, 0, 0, 0, 0, 0, 0, 0, 0, 0, 0, 0, 1, 0, 0, 0, 1, 0, 0, 0
      |0, 0, 0, 0, 1, 0, 0, 0, 0, 0, 0, 0, 0, 0, 0, 0, 0, 0, 0, 0, 0, 0
      |0, 0, 0, 0, 1, 0, 0, 0, 0, 0, 0, 0, 0, 0, 0, 0, 0, 0, 0, 0, 0, 0
      |];

% Weights matrix (edge weights)
% Weights = [|0, 1, 5, 0, 2, 0, 0, 0, 0, 0, 0, 0, 0, 3, 0, 0, 0, 0, 3, 0, 0, 0
%           |1, 0, 0, 0, 0, 0, 0, 0, 0, 1, 0, 0, 0, 0, 0, 0, 0, 0, 0, 0, 0, 0
%           |5, 0, 0, 0, 0, 0, 0, 0, 0, 0, 0, 0, 0, 0, 0, 0, 0, 0, 5, 0, 0, 0
%           |0, 0, 0, 0, 0, 0, 0, 0, 0, 0, 0, 0, 0, 5, 3, 0, 0, 0, 0, 0, 0, 0
%           |2, 0, 0, 0, 0, 0, 5, 0, 0, 1, 0, 1, 0, 0, 0, 0, 0, 0, 0, 0, 1, 3
%           |0, 0, 0, 0, 0, 0, 0, 0, 0, 0, 0, 0, 5, 0, 0, 0, 0, 0, 0, 0, 0, 0
%           |0, 0, 0, 0, 5, 0, 0, 0, 0, 0, 0, 0, 0, 0, 0, 5, 0, 2, 0, 0, 0, 0
%           |0, 0, 0, 0, 0, 0, 0, 0, 0, 0, 0, 0, 0, 0, 2, 5, 0, 0, 0, 0, 0, 0
%           |0, 0, 0, 0, 0, 0, 0, 0, 0, 0, 0, 0, 0, 0, 0, 3, 0, 0, 0, 0, 0, 0
%           |0, 1, 0, 0, 1, 0, 0, 0, 0, 0, 0, 0, 3, 0, 0, 0, 0, 0, 0, 0, 0, 0
%           |0, 0, 0, 0, 0, 0, 0, 0, 0, 0, 0, 0, 0, 0, 3, 0, 0, 0, 0, 0, 0, 0
%           |0, 0, 0, 0, 1, 0, 0, 0, 0, 0, 0, 0, 0, 0, 3, 0, 0, 0, 0, 0, 0, 0
%           |0, 0, 0, 0, 0, 5, 0, 0, 0, 3, 0, 0, 0, 0, 0, 0, 0, 0, 0, 0, 0, 0
%           |3, 0, 0, 5, 0, 0, 0, 0, 0, 0, 0, 0, 0, 0, 0, 1, 0, 0, 0, 0, 0, 0
%           |0, 0, 0, 3, 0, 0, 0, 2, 0, 0, 3, 3, 0, 0, 0, 0, 0, 0, 0, 4, 0, 0
%           |0, 0, 0, 0, 0, 0, 5, 5, 3, 0, 0, 0, 0, 1, 0, 0, 0, 0, 0, 0, 0, 0
%           |0, 0, 0, 0, 0, 0, 0, 0, 0, 0, 0, 0, 0, 0, 0, 0, 0, 2, 2, 0, 0, 0
%           |0, 0, 0, 0, 0, 0, 2, 0, 0, 0, 0, 0, 0, 0, 0, 0, 2, 0, 0, 0, 0, 0
%           |3, 0, 5, 0, 0, 0, 0, 0, 0, 0, 0, 0, 0, 0, 0, 0, 2, 0, 0, 1, 0, 0
%           |0, 0, 0, 0, 0, 0, 0, 0, 0, 0, 0, 0, 0, 0, 4, 0, 0, 0, 1, 0, 0, 0
%           |0, 0, 0, 0, 1, 0, 0, 0, 0, 0, 0, 0, 0, 0, 0, 0, 0, 0, 0, 0, 0, 0
%           |0, 0, 0, 0, 3, 0, 0, 0, 0, 0, 0, 0, 0, 0, 0, 0, 0, 0, 0, 0, 0, 0
%           |];

% Distance matrix
Dist = [|0, 1, 5, 8, 2, 10, 7, 8, 7, 2, 9, 3, 5, 3, 6, 4, 5, 7, 3, 4, 3, 5
      |1, 0, 6, 9, 2, 9, 7, 8, 8, 1, 9, 3, 4, 4, 6, 5, 6, 8, 4, 5, 3, 5
      |5, 6, 0, 13, 7, 15, 11, 12, 12, 7, 13, 8, 10, 8, 10, 9, 7, 9, 5, 6, 8, 10
      |8, 9, 13, 0, 7, 16, 11, 5, 9, 8, 6, 6, 11, 5, 3, 6, 10, 12, 8, 7, 8, 10
      |2, 2, 7, 7, 0, 9, 5, 6, 9, 1, 7, 1, 4, 5, 4, 6, 7, 7, 5, 6, 1, 3
      |10, 9, 15, 16, 9, 0, 14, 15, 17, 8, 16, 10, 5, 13, 13, 14, 15, 16, 13, 14, 10, 12
      |7, 7, 11, 11, 5, 14, 0, 10, 8, 6, 12, 6, 9, 6, 9, 5, 4, 2, 6, 7, 6, 8
      |8, 8, 12, 5, 6, 15, 10, 0, 8, 7, 5, 5, 10, 6, 2, 5, 9, 11, 7, 6, 7, 9
      |7, 8, 12, 9, 9, 17, 8, 8, 0, 9, 13, 10, 12, 4, 10, 3, 12, 10, 10, 11, 10, 12
      |2, 1, 7, 8, 1, 8, 6, 7, 9, 0, 8, 2, 3, 5, 5, 6, 7, 8, 5, 6, 2, 4
      |9, 9, 13, 6, 7, 16, 12, 5, 13, 8, 0, 6, 11, 11, 3, 10, 10, 12, 8, 7, 8, 10
      |3, 3, 8, 6, 1, 10, 6, 5, 10, 2, 6, 0, 5, 6, 3, 7, 8, 8, 6, 7, 2, 4
      |5, 4, 10, 11, 4, 5, 9, 10, 12, 3, 11, 5, 0, 8, 8, 9, 10, 11, 8, 9, 5, 7
      |3, 4, 8, 5, 5, 13, 6, 6, 4, 5, 11, 6, 8, 0, 8, 1, 8, 8, 6, 7, 6, 8
      |6, 6, 10, 3, 4, 13, 9, 2, 10, 5, 3, 3, 8, 8, 0, 7, 7, 9, 5, 4, 5, 7
      |4, 5, 9, 6, 6, 14, 5, 5, 3, 6, 10, 7, 9, 1, 7, 0, 9, 7, 7, 8, 7, 9
      |5, 6, 7, 10, 7, 15, 4, 9, 12, 7, 10, 8, 10, 8, 7, 9, 0, 2, 2, 3, 8, 10
      |7, 8, 9, 12, 7, 16, 2, 11, 10, 8, 12, 8, 11, 8, 9, 7, 2, 0, 4, 5, 8, 10
      |3, 4, 5, 8, 5, 13, 6, 7, 10, 5, 8, 6, 8, 6, 5, 7, 2, 4, 0, 1, 6, 8
      |4, 5, 6, 7, 6, 14, 7, 6, 11, 6, 7, 7, 9, 7, 4, 8, 3, 5, 1, 0, 7, 9
      |3, 3, 8, 8, 1, 10, 6, 7, 10, 2, 8, 2, 5, 6, 5, 7, 8, 8, 6, 7, 0, 4
      |5, 5, 10, 10, 3, 12, 8, 9, 12, 4, 10, 4, 7, 8, 7, 9, 10, 10, 8, 9, 4, 0
      |];

% Initial object distribution
S_init = [0, 0, 0, 0, 1, 0, 0, 0, 0, 0, 0, 0, 0, 0, 1, 2, 0, 1, 0, 0, 0, 0];

% Target nodes (1 if target, 0 otherwise)
T = [0, 0, 0, 0, 0, 0, 1, 0, 1, 0, 1, 0, 0, 0, 0, 0, 0, 0, 0, 0, 0, 1];

% Initial truck position (1-based indexing)
u = 4;

% --- DEBUG TRACE ---
% --- GENERATION TRACE (Backwards from Target) ---
% Initial distribution (all on targets): [0, 0, 0, 0, 0, 0, 2, 0, 1, 0, 1, 0, 0, 0, 0, 0, 0, 0, 0, 0, 0, 1]
% Step 1: Selected target node 22 (has 1 objects)
% Step 1: Moved object 22 -> 5
% Step 1: Distribution: [0, 0, 0, 0, 1, 0, 2, 0, 1, 0, 1, 0, 0, 0, 0, 0, 0, 0, 0, 0, 0, 0]
% Step 2: Selected target node 9 (has 1 objects)
% Step 2: Moved object 9 -> 16
% Step 2: Distribution: [0, 0, 0, 0, 1, 0, 2, 0, 0, 0, 1, 0, 0, 0, 0, 1, 0, 0, 0, 0, 0, 0]
% Step 3: Selected target node 7 (has 2 objects)
% Step 3: Moved object 7 -> 18
% Step 3: Distribution: [0, 0, 0, 0, 1, 0, 1, 0, 0, 0, 1, 0, 0, 0, 0, 1, 0, 1, 0, 0, 0, 0]
% Step 4: Selected target node 11 (has 1 objects)
% Step 4: Moved object 11 -> 15
% Step 4: Distribution: [0, 0, 0, 0, 1, 0, 1, 0, 0, 0, 0, 0, 0, 0, 1, 1, 0, 1, 0, 0, 0, 0]
% Step 5: Selected target node 7 (has 1 objects)
% Step 5: Moved object 7 -> 16
% Step 5: Distribution: [0, 0, 0, 0, 1, 0, 0, 0, 0, 0, 0, 0, 0, 0, 1, 2, 0, 1, 0, 0, 0, 0]
% Truck starting position: 4
