% instance_n18_c1_k17_i49.dzn
% Generated instance for the Trucks problem
% N=18, h=4, k=17

% Number of nodes
N = 18;

% Number of objects
h = 4;

% Maximum plan length
%k = 17;

% Adjacency matrix (0-based internal, will be converted to 1-based)
Adj = [|0, 1, 1, 0, 0, 0, 0, 0, 1, 0, 1, 0, 0, 0, 0, 0, 1, 0
      |1, 0, 0, 0, 0, 0, 0, 0, 0, 0, 1, 0, 0, 0, 0, 0, 0, 0
      |1, 0, 0, 0, 0, 0, 0, 0, 0, 0, 0, 0, 1, 0, 0, 0, 0, 0
      |0, 0, 0, 0, 1, 0, 1, 1, 1, 0, 0, 0, 0, 0, 0, 0, 0, 0
      |0, 0, 0, 1, 0, 0, 0, 0, 0, 0, 0, 0, 0, 0, 1, 0, 0, 0
      |0, 0, 0, 0, 0, 0, 0, 1, 0, 0, 0, 0, 0, 1, 0, 0, 0, 0
      |0, 0, 0, 1, 0, 0, 0, 0, 0, 1, 0, 0, 0, 0, 0, 0, 0, 0
      |0, 0, 0, 1, 0, 1, 0, 0, 0, 0, 0, 0, 0, 0, 0, 0, 0, 0
      |1, 0, 0, 1, 0, 0, 0, 0, 0, 0, 0, 0, 0, 1, 0, 0, 0, 0
      |0, 0, 0, 0, 0, 0, 1, 0, 0, 0, 0, 0, 0, 0, 0, 0, 0, 1
      |1, 1, 0, 0, 0, 0, 0, 0, 0, 0, 0, 0, 0, 0, 0, 0, 1, 0
      |0, 0, 0, 0, 0, 0, 0, 0, 0, 0, 0, 0, 0, 1, 0, 0, 0, 0
      |0, 0, 1, 0, 0, 0, 0, 0, 0, 0, 0, 0, 0, 0, 0, 0, 0, 0
      |0, 0, 0, 0, 0, 1, 0, 0, 1, 0, 0, 1, 0, 0, 0, 0, 0, 1
      |0, 0, 0, 0, 1, 0, 0, 0, 0, 0, 0, 0, 0, 0, 0, 0, 1, 0
      |0, 0, 0, 0, 0, 0, 0, 0, 0, 0, 0, 0, 0, 0, 0, 0, 1, 0
      |1, 0, 0, 0, 0, 0, 0, 0, 0, 0, 1, 0, 0, 0, 1, 1, 0, 1
      |0, 0, 0, 0, 0, 0, 0, 0, 0, 1, 0, 0, 0, 1, 0, 0, 1, 0
      |];

% Weights matrix (edge weights)
% Weights = [|0, 3, 2, 0, 0, 0, 0, 0, 3, 0, 5, 0, 0, 0, 0, 0, 4, 0
%           |3, 0, 0, 0, 0, 0, 0, 0, 0, 0, 1, 0, 0, 0, 0, 0, 0, 0
%           |2, 0, 0, 0, 0, 0, 0, 0, 0, 0, 0, 0, 5, 0, 0, 0, 0, 0
%           |0, 0, 0, 0, 3, 0, 4, 4, 5, 0, 0, 0, 0, 0, 0, 0, 0, 0
%           |0, 0, 0, 3, 0, 0, 0, 0, 0, 0, 0, 0, 0, 0, 2, 0, 0, 0
%           |0, 0, 0, 0, 0, 0, 0, 1, 0, 0, 0, 0, 0, 4, 0, 0, 0, 0
%           |0, 0, 0, 4, 0, 0, 0, 0, 0, 3, 0, 0, 0, 0, 0, 0, 0, 0
%           |0, 0, 0, 4, 0, 1, 0, 0, 0, 0, 0, 0, 0, 0, 0, 0, 0, 0
%           |3, 0, 0, 5, 0, 0, 0, 0, 0, 0, 0, 0, 0, 2, 0, 0, 0, 0
%           |0, 0, 0, 0, 0, 0, 3, 0, 0, 0, 0, 0, 0, 0, 0, 0, 0, 5
%           |5, 1, 0, 0, 0, 0, 0, 0, 0, 0, 0, 0, 0, 0, 0, 0, 4, 0
%           |0, 0, 0, 0, 0, 0, 0, 0, 0, 0, 0, 0, 0, 2, 0, 0, 0, 0
%           |0, 0, 5, 0, 0, 0, 0, 0, 0, 0, 0, 0, 0, 0, 0, 0, 0, 0
%           |0, 0, 0, 0, 0, 4, 0, 0, 2, 0, 0, 2, 0, 0, 0, 0, 0, 5
%           |0, 0, 0, 0, 2, 0, 0, 0, 0, 0, 0, 0, 0, 0, 0, 0, 5, 0
%           |0, 0, 0, 0, 0, 0, 0, 0, 0, 0, 0, 0, 0, 0, 0, 0, 1, 0
%           |4, 0, 0, 0, 0, 0, 0, 0, 0, 0, 4, 0, 0, 0, 5, 1, 0, 2
%           |0, 0, 0, 0, 0, 0, 0, 0, 0, 5, 0, 0, 0, 5, 0, 0, 2, 0
%           |];

% Distance matrix
Dist = [|0, 3, 2, 8, 11, 9, 12, 10, 3, 11, 4, 7, 7, 5, 9, 5, 4, 6
      |3, 0, 5, 11, 12, 12, 15, 13, 6, 12, 1, 10, 10, 8, 10, 6, 5, 7
      |2, 5, 0, 10, 13, 11, 14, 12, 5, 13, 6, 9, 5, 7, 11, 7, 6, 8
      |8, 11, 10, 0, 3, 5, 4, 4, 5, 7, 12, 9, 15, 7, 5, 11, 10, 12
      |11, 12, 13, 3, 0, 8, 7, 7, 8, 10, 11, 12, 18, 10, 2, 8, 7, 9
      |9, 12, 11, 5, 8, 0, 9, 1, 6, 12, 13, 6, 16, 4, 10, 12, 11, 9
      |12, 15, 14, 4, 7, 9, 0, 8, 9, 3, 14, 13, 19, 11, 9, 11, 10, 8
      |10, 13, 12, 4, 7, 1, 8, 0, 7, 11, 14, 7, 17, 5, 9, 13, 12, 10
      |3, 6, 5, 5, 8, 6, 9, 7, 0, 12, 7, 4, 10, 2, 10, 8, 7, 7
      |11, 12, 13, 7, 10, 12, 3, 11, 12, 0, 11, 12, 18, 10, 12, 8, 7, 5
      |4, 1, 6, 12, 11, 13, 14, 14, 7, 11, 0, 11, 11, 9, 9, 5, 4, 6
      |7, 10, 9, 9, 12, 6, 13, 7, 4, 12, 11, 0, 14, 2, 14, 10, 9, 7
      |7, 10, 5, 15, 18, 16, 19, 17, 10, 18, 11, 14, 0, 12, 16, 12, 11, 13
      |5, 8, 7, 7, 10, 4, 11, 5, 2, 10, 9, 2, 12, 0, 12, 8, 7, 5
      |9, 10, 11, 5, 2, 10, 9, 9, 10, 12, 9, 14, 16, 12, 0, 6, 5, 7
      |5, 6, 7, 11, 8, 12, 11, 13, 8, 8, 5, 10, 12, 8, 6, 0, 1, 3
      |4, 5, 6, 10, 7, 11, 10, 12, 7, 7, 4, 9, 11, 7, 5, 1, 0, 2
      |6, 7, 8, 12, 9, 9, 8, 10, 7, 5, 6, 7, 13, 5, 7, 3, 2, 0
      |];

% Initial object distribution
S_init = [0, 0, 0, 0, 0, 0, 1, 0, 0, 0, 0, 0, 1, 0, 0, 0, 2, 0];

% Target nodes (1 if target, 0 otherwise)
T = [0, 0, 1, 0, 0, 0, 0, 0, 0, 0, 0, 0, 1, 1, 1, 0, 0, 0];

% Initial truck position (1-based indexing)
u = 13;

% --- DEBUG TRACE ---
% --- GENERATION TRACE (Backwards from Target) ---
% Initial distribution (all on targets): [0, 0, 1, 0, 0, 0, 0, 0, 0, 0, 0, 0, 1, 1, 1, 0, 0, 0]
% Step 1: Selected target node 13 (has 1 objects)
% Step 1: Selected target node 3 (has 1 objects)
% Step 1: Moved object 3 -> 1
% Step 1: Distribution: [1, 0, 0, 0, 0, 0, 0, 0, 0, 0, 0, 0, 1, 1, 1, 0, 0, 0]
% Step 2: Selected target node 13 (has 1 objects)
% Step 2: Selected target node 15 (has 1 objects)
% Step 2: Moved object 15 -> 5
% Step 2: Distribution: [1, 0, 0, 0, 1, 0, 0, 0, 0, 0, 0, 0, 1, 1, 0, 0, 0, 0]
% Step 3: Selected target node 14 (has 1 objects)
% Step 3: Moved object 14 -> 9
% Step 3: Distribution: [1, 0, 0, 0, 1, 0, 0, 0, 1, 0, 0, 0, 1, 0, 0, 0, 0, 0]
% Step 4: Selected target node 13 (has 1 objects)
% Step 4: Selected non-target node 5 (has 1 objects)
% Step 4: Avoiding backtrack to node 15
% Step 4: Moved object 5 -> 4
% Step 4: Distribution: [1, 0, 0, 1, 0, 0, 0, 0, 1, 0, 0, 0, 1, 0, 0, 0, 0, 0]
% Step 5: Selected target node 13 (has 1 objects)
% Step 5: Selected non-target node 4 (has 1 objects)
% Step 5: Avoiding backtrack to node 5
% Step 5: Moved object 4 -> 7
% Step 5: Distribution: [1, 0, 0, 0, 0, 0, 1, 0, 1, 0, 0, 0, 1, 0, 0, 0, 0, 0]
% Step 6: Selected target node 13 (has 1 objects)
% Step 6: Selected non-target node 7 (has 1 objects)
% Step 6: Avoiding backtrack to node 4
% Step 6: Moved object 7 -> 10
% Step 6: Distribution: [1, 0, 0, 0, 0, 0, 0, 0, 1, 1, 0, 0, 1, 0, 0, 0, 0, 0]
% Step 7: Selected target node 13 (has 1 objects)
% Step 7: Selected non-target node 9 (has 1 objects)
% Step 7: Avoiding backtrack to node 14
% Step 7: Moved object 9 -> 1
% Step 7: Distribution: [2, 0, 0, 0, 0, 0, 0, 0, 0, 1, 0, 0, 1, 0, 0, 0, 0, 0]
% Step 8: Selected target node 13 (has 1 objects)
% Step 8: Selected non-target node 10 (has 1 objects)
% Step 8: Avoiding backtrack to node 7
% Step 8: Moved object 10 -> 18
% Step 8: Distribution: [2, 0, 0, 0, 0, 0, 0, 0, 0, 0, 0, 0, 1, 0, 0, 0, 0, 1]
% Step 9: Selected target node 13 (has 1 objects)
% Step 9: Selected non-target node 18 (has 1 objects)
% Step 9: Avoiding backtrack to node 10
% Step 9: Moved object 18 -> 17
% Step 9: Distribution: [2, 0, 0, 0, 0, 0, 0, 0, 0, 0, 0, 0, 1, 0, 0, 0, 1, 0]
% Step 10: Selected target node 13 (has 1 objects)
% Step 10: Selected non-target node 17 (has 1 objects)
% Step 10: Avoiding backtrack to node 18
% Step 10: Moved object 17 -> 16
% Step 10: Distribution: [2, 0, 0, 0, 0, 0, 0, 0, 0, 0, 0, 0, 1, 0, 0, 1, 0, 0]
% Step 11: Selected target node 13 (has 1 objects)
% Step 11: Selected non-target node 1 (has 2 objects)
% Step 11: Avoiding backtrack to node 9
% Step 11: Moved object 1 -> 11
% Step 11: Distribution: [1, 0, 0, 0, 0, 0, 0, 0, 0, 0, 1, 0, 1, 0, 0, 1, 0, 0]
% Step 12: Selected target node 13 (has 1 objects)
% Step 12: Selected non-target node 16 (has 1 objects)
% Step 12: Moved object 16 -> 17
% Step 12: Distribution: [1, 0, 0, 0, 0, 0, 0, 0, 0, 0, 1, 0, 1, 0, 0, 0, 1, 0]
% Step 13: Selected target node 13 (has 1 objects)
% Step 13: Selected non-target node 17 (has 1 objects)
% Step 13: Avoiding backtrack to node 16
% Step 13: Moved object 17 -> 18
% Step 13: Distribution: [1, 0, 0, 0, 0, 0, 0, 0, 0, 0, 1, 0, 1, 0, 0, 0, 0, 1]
% Step 14: Selected target node 13 (has 1 objects)
% Step 14: Selected non-target node 18 (has 1 objects)
% Step 14: Avoiding backtrack to node 17
% Step 14: Moved object 18 -> 10
% Step 14: Distribution: [1, 0, 0, 0, 0, 0, 0, 0, 0, 1, 1, 0, 1, 0, 0, 0, 0, 0]
% Step 15: Selected target node 13 (has 1 objects)
% Step 15: Selected non-target node 11 (has 1 objects)
% Step 15: Avoiding backtrack to node 1
% Step 15: Moved object 11 -> 17
% Step 15: Distribution: [1, 0, 0, 0, 0, 0, 0, 0, 0, 1, 0, 0, 1, 0, 0, 0, 1, 0]
% Step 16: Selected target node 13 (has 1 objects)
% Step 16: Selected non-target node 1 (has 1 objects)
% Step 16: Avoiding backtrack to node 9
% Step 16: Moved object 1 -> 17
% Step 16: Distribution: [0, 0, 0, 0, 0, 0, 0, 0, 0, 1, 0, 0, 1, 0, 0, 0, 2, 0]
% Step 17: Selected target node 13 (has 1 objects)
% Step 17: Selected non-target node 10 (has 1 objects)
% Step 17: Avoiding backtrack to node 18
% Step 17: Moved object 10 -> 7
% Step 17: Distribution: [0, 0, 0, 0, 0, 0, 1, 0, 0, 0, 0, 0, 1, 0, 0, 0, 2, 0]
% Truck starting position: 13
