% instance_n14_c1_k11_i27.dzn
% Generated instance for the Trucks problem
% N=14, h=3, k=11

% Number of nodes
N = 14;

% Number of objects
h = 3;

% Maximum plan length
%k = 11;

% Adjacency matrix (0-based internal, will be converted to 1-based)
Adj = [|0, 0, 0, 0, 0, 0, 0, 0, 1, 0, 0, 0, 0, 1
      |0, 0, 0, 0, 1, 0, 0, 1, 0, 0, 0, 0, 0, 0
      |0, 0, 0, 0, 0, 0, 0, 0, 0, 0, 1, 0, 0, 1
      |0, 0, 0, 0, 1, 0, 0, 0, 0, 0, 0, 1, 0, 0
      |0, 1, 0, 1, 0, 0, 0, 0, 0, 0, 0, 0, 0, 0
      |0, 0, 0, 0, 0, 0, 0, 1, 0, 0, 1, 0, 0, 0
      |0, 0, 0, 0, 0, 0, 0, 0, 1, 0, 0, 0, 0, 0
      |0, 1, 0, 0, 0, 1, 0, 0, 0, 0, 0, 0, 0, 0
      |1, 0, 0, 0, 0, 0, 1, 0, 0, 0, 0, 1, 0, 0
      |0, 0, 0, 0, 0, 0, 0, 0, 0, 0, 0, 1, 0, 0
      |0, 0, 1, 0, 0, 1, 0, 0, 0, 0, 0, 0, 1, 0
      |0, 0, 0, 1, 0, 0, 0, 0, 1, 1, 0, 0, 0, 0
      |0, 0, 0, 0, 0, 0, 0, 0, 0, 0, 1, 0, 0, 1
      |1, 0, 1, 0, 0, 0, 0, 0, 0, 0, 0, 0, 1, 0
      |];

% Weights matrix (edge weights)
% Weights = [|0, 0, 0, 0, 0, 0, 0, 0, 1, 0, 0, 0, 0, 1
%           |0, 0, 0, 0, 4, 0, 0, 5, 0, 0, 0, 0, 0, 0
%           |0, 0, 0, 0, 0, 0, 0, 0, 0, 0, 5, 0, 0, 3
%           |0, 0, 0, 0, 4, 0, 0, 0, 0, 0, 0, 4, 0, 0
%           |0, 4, 0, 4, 0, 0, 0, 0, 0, 0, 0, 0, 0, 0
%           |0, 0, 0, 0, 0, 0, 0, 1, 0, 0, 5, 0, 0, 0
%           |0, 0, 0, 0, 0, 0, 0, 0, 5, 0, 0, 0, 0, 0
%           |0, 5, 0, 0, 0, 1, 0, 0, 0, 0, 0, 0, 0, 0
%           |1, 0, 0, 0, 0, 0, 5, 0, 0, 0, 0, 2, 0, 0
%           |0, 0, 0, 0, 0, 0, 0, 0, 0, 0, 0, 5, 0, 0
%           |0, 0, 5, 0, 0, 5, 0, 0, 0, 0, 0, 0, 5, 0
%           |0, 0, 0, 4, 0, 0, 0, 0, 2, 5, 0, 0, 0, 0
%           |0, 0, 0, 0, 0, 0, 0, 0, 0, 0, 5, 0, 0, 2
%           |1, 0, 3, 0, 0, 0, 0, 0, 0, 0, 0, 0, 2, 0
%           |];

% Distance matrix
Dist = [|0, 15, 4, 7, 11, 13, 6, 14, 1, 8, 8, 3, 3, 1
      |15, 0, 16, 8, 4, 6, 19, 5, 14, 17, 11, 12, 16, 16
      |4, 16, 0, 11, 15, 10, 10, 11, 5, 12, 5, 7, 5, 3
      |7, 8, 11, 0, 4, 14, 11, 13, 6, 9, 15, 4, 10, 8
      |11, 4, 15, 4, 0, 10, 15, 9, 10, 13, 15, 8, 14, 12
      |13, 6, 10, 14, 10, 0, 19, 1, 14, 21, 5, 16, 10, 12
      |6, 19, 10, 11, 15, 19, 0, 20, 5, 12, 14, 7, 9, 7
      |14, 5, 11, 13, 9, 1, 20, 0, 15, 22, 6, 17, 11, 13
      |1, 14, 5, 6, 10, 14, 5, 15, 0, 7, 9, 2, 4, 2
      |8, 17, 12, 9, 13, 21, 12, 22, 7, 0, 16, 5, 11, 9
      |8, 11, 5, 15, 15, 5, 14, 6, 9, 16, 0, 11, 5, 7
      |3, 12, 7, 4, 8, 16, 7, 17, 2, 5, 11, 0, 6, 4
      |3, 16, 5, 10, 14, 10, 9, 11, 4, 11, 5, 6, 0, 2
      |1, 16, 3, 8, 12, 12, 7, 13, 2, 9, 7, 4, 2, 0
      |];

% Initial object distribution
S_init = [0, 0, 0, 0, 0, 0, 0, 2, 1, 0, 0, 0, 0, 0];

% Target nodes (1 if target, 0 otherwise)
T = [0, 0, 1, 0, 0, 0, 0, 0, 0, 1, 0, 0, 1, 0];

% Initial truck position (1-based indexing)
u = 1;

% --- DEBUG TRACE ---
% --- GENERATION TRACE (Backwards from Target) ---
% Initial distribution (all on targets): [0, 0, 1, 0, 0, 0, 0, 0, 0, 1, 0, 0, 1, 0]
% Step 1: Selected target node 10 (has 1 objects)
% Step 1: Moved object 10 -> 12
% Step 1: Distribution: [0, 0, 1, 0, 0, 0, 0, 0, 0, 0, 0, 1, 1, 0]
% Step 2: Selected target node 3 (has 1 objects)
% Step 2: Moved object 3 -> 11
% Step 2: Distribution: [0, 0, 0, 0, 0, 0, 0, 0, 0, 0, 1, 1, 1, 0]
% Step 3: Selected target node 13 (has 1 objects)
% Step 3: Moved object 13 -> 14
% Step 3: Distribution: [0, 0, 0, 0, 0, 0, 0, 0, 0, 0, 1, 1, 0, 1]
% Step 4: Selected non-target node 12 (has 1 objects)
% Step 4: Avoiding backtrack to node 10
% Step 4: Moved object 12 -> 4
% Step 4: Distribution: [0, 0, 0, 1, 0, 0, 0, 0, 0, 0, 1, 0, 0, 1]
% Step 5: Selected non-target node 11 (has 1 objects)
% Step 5: Avoiding backtrack to node 3
% Step 5: Moved object 11 -> 6
% Step 5: Distribution: [0, 0, 0, 1, 0, 1, 0, 0, 0, 0, 0, 0, 0, 1]
% Step 6: Selected non-target node 4 (has 1 objects)
% Step 6: Avoiding backtrack to node 12
% Step 6: Moved object 4 -> 5
% Step 6: Distribution: [0, 0, 0, 0, 1, 1, 0, 0, 0, 0, 0, 0, 0, 1]
% Step 7: Selected non-target node 6 (has 1 objects)
% Step 7: Avoiding backtrack to node 11
% Step 7: Moved object 6 -> 8
% Step 7: Distribution: [0, 0, 0, 0, 1, 0, 0, 1, 0, 0, 0, 0, 0, 1]
% Step 8: Selected non-target node 14 (has 1 objects)
% Step 8: Avoiding backtrack to node 13
% Step 8: Moved object 14 -> 1
% Step 8: Distribution: [1, 0, 0, 0, 1, 0, 0, 1, 0, 0, 0, 0, 0, 0]
% Step 9: Selected non-target node 5 (has 1 objects)
% Step 9: Avoiding backtrack to node 4
% Step 9: Moved object 5 -> 2
% Step 9: Distribution: [1, 1, 0, 0, 0, 0, 0, 1, 0, 0, 0, 0, 0, 0]
% Step 10: Selected non-target node 1 (has 1 objects)
% Step 10: Avoiding backtrack to node 14
% Step 10: Moved object 1 -> 9
% Step 10: Distribution: [0, 1, 0, 0, 0, 0, 0, 1, 1, 0, 0, 0, 0, 0]
% Step 11: Selected non-target node 2 (has 1 objects)
% Step 11: Avoiding backtrack to node 5
% Step 11: Moved object 2 -> 8
% Step 11: Distribution: [0, 0, 0, 0, 0, 0, 0, 2, 1, 0, 0, 0, 0, 0]
% Truck starting position: 1
