% instance_n14_c2_k11_i32.dzn
% Generated instance for the Trucks problem
% N=14, h=3, k=11

% Number of nodes
N = 14;

% Number of objects
h = 3;

% Maximum plan length
%k = 11;

% Adjacency matrix (0-based internal, will be converted to 1-based)
Adj = [|0, 0, 1, 0, 1, 0, 1, 0, 0, 0, 0, 0, 0, 0
      |0, 0, 0, 0, 1, 0, 0, 0, 0, 0, 0, 0, 0, 0
      |1, 0, 0, 0, 0, 0, 0, 0, 1, 0, 1, 0, 0, 0
      |0, 0, 0, 0, 0, 0, 0, 0, 1, 0, 1, 0, 0, 0
      |1, 1, 0, 0, 0, 0, 0, 1, 0, 0, 0, 1, 1, 1
      |0, 0, 0, 0, 0, 0, 0, 1, 1, 0, 0, 0, 1, 0
      |1, 0, 0, 0, 0, 0, 0, 0, 0, 0, 0, 0, 0, 0
      |0, 0, 0, 0, 1, 1, 0, 0, 0, 0, 0, 0, 0, 0
      |0, 0, 1, 1, 0, 1, 0, 0, 0, 0, 0, 0, 1, 0
      |0, 0, 0, 0, 0, 0, 0, 0, 0, 0, 0, 1, 0, 0
      |0, 0, 1, 1, 0, 0, 0, 0, 0, 0, 0, 0, 0, 0
      |0, 0, 0, 0, 1, 0, 0, 0, 0, 1, 0, 0, 0, 0
      |0, 0, 0, 0, 1, 1, 0, 0, 1, 0, 0, 0, 0, 0
      |0, 0, 0, 0, 1, 0, 0, 0, 0, 0, 0, 0, 0, 0
      |];

% Weights matrix (edge weights)
% Weights = [|0, 0, 4, 0, 3, 0, 3, 0, 0, 0, 0, 0, 0, 0
%           |0, 0, 0, 0, 3, 0, 0, 0, 0, 0, 0, 0, 0, 0
%           |4, 0, 0, 0, 0, 0, 0, 0, 4, 0, 5, 0, 0, 0
%           |0, 0, 0, 0, 0, 0, 0, 0, 5, 0, 3, 0, 0, 0
%           |3, 3, 0, 0, 0, 0, 0, 2, 0, 0, 0, 2, 1, 1
%           |0, 0, 0, 0, 0, 0, 0, 4, 3, 0, 0, 0, 1, 0
%           |3, 0, 0, 0, 0, 0, 0, 0, 0, 0, 0, 0, 0, 0
%           |0, 0, 0, 0, 2, 4, 0, 0, 0, 0, 0, 0, 0, 0
%           |0, 0, 4, 5, 0, 3, 0, 0, 0, 0, 0, 0, 5, 0
%           |0, 0, 0, 0, 0, 0, 0, 0, 0, 0, 0, 2, 0, 0
%           |0, 0, 5, 3, 0, 0, 0, 0, 0, 0, 0, 0, 0, 0
%           |0, 0, 0, 0, 2, 0, 0, 0, 0, 2, 0, 0, 0, 0
%           |0, 0, 0, 0, 1, 1, 0, 0, 5, 0, 0, 0, 0, 0
%           |0, 0, 0, 0, 1, 0, 0, 0, 0, 0, 0, 0, 0, 0
%           |];

% Distance matrix
Dist = [|0, 6, 4, 12, 3, 5, 3, 5, 8, 7, 9, 5, 4, 4
      |6, 0, 10, 13, 3, 5, 9, 5, 8, 7, 15, 5, 4, 4
      |4, 10, 0, 8, 7, 7, 7, 9, 4, 11, 5, 9, 8, 8
      |12, 13, 8, 0, 10, 8, 15, 12, 5, 14, 3, 12, 9, 11
      |3, 3, 7, 10, 0, 2, 6, 2, 5, 4, 12, 2, 1, 1
      |5, 5, 7, 8, 2, 0, 8, 4, 3, 6, 11, 4, 1, 3
      |3, 9, 7, 15, 6, 8, 0, 8, 11, 10, 12, 8, 7, 7
      |5, 5, 9, 12, 2, 4, 8, 0, 7, 6, 14, 4, 3, 3
      |8, 8, 4, 5, 5, 3, 11, 7, 0, 9, 8, 7, 4, 6
      |7, 7, 11, 14, 4, 6, 10, 6, 9, 0, 16, 2, 5, 5
      |9, 15, 5, 3, 12, 11, 12, 14, 8, 16, 0, 14, 12, 13
      |5, 5, 9, 12, 2, 4, 8, 4, 7, 2, 14, 0, 3, 3
      |4, 4, 8, 9, 1, 1, 7, 3, 4, 5, 12, 3, 0, 2
      |4, 4, 8, 11, 1, 3, 7, 3, 6, 5, 13, 3, 2, 0
      |];

% Initial object distribution
S_init = [0, 0, 0, 0, 1, 0, 0, 0, 2, 0, 0, 0, 0, 0];

% Target nodes (1 if target, 0 otherwise)
T = [1, 1, 0, 0, 0, 0, 0, 0, 0, 0, 1, 0, 0, 0];

% Initial truck position (1-based indexing)
u = 6;

% --- DEBUG TRACE ---
% --- GENERATION TRACE (Backwards from Target) ---
% Initial distribution (all on targets): [1, 1, 0, 0, 0, 0, 0, 0, 0, 0, 1, 0, 0, 0]
% Step 1: Selected target node 11 (has 1 objects)
% Step 1: Moved object 11 -> 3
% Step 1: Distribution: [1, 1, 1, 0, 0, 0, 0, 0, 0, 0, 0, 0, 0, 0]
% Step 2: Selected target node 1 (has 1 objects)
% Step 2: Moved object 1 -> 3
% Step 2: Distribution: [0, 1, 2, 0, 0, 0, 0, 0, 0, 0, 0, 0, 0, 0]
% Step 3: Selected target node 2 (has 1 objects)
% Step 3: Moved object 2 -> 5
% Step 3: Distribution: [0, 0, 2, 0, 1, 0, 0, 0, 0, 0, 0, 0, 0, 0]
% Step 4: Selected non-target node 5 (has 1 objects)
% Step 4: Avoiding backtrack to node 2
% Step 4: Moved object 5 -> 12
% Step 4: Distribution: [0, 0, 2, 0, 0, 0, 0, 0, 0, 0, 0, 1, 0, 0]
% Step 5: Selected non-target node 3 (has 2 objects)
% Step 5: Avoiding backtrack to node 1
% Step 5: Moved object 3 -> 9
% Step 5: Distribution: [0, 0, 1, 0, 0, 0, 0, 0, 1, 0, 0, 1, 0, 0]
% Step 6: Selected non-target node 12 (has 1 objects)
% Step 6: Avoiding backtrack to node 5
% Step 6: Moved object 12 -> 10
% Step 6: Distribution: [0, 0, 1, 0, 0, 0, 0, 0, 1, 1, 0, 0, 0, 0]
% Step 7: Selected non-target node 9 (has 1 objects)
% Step 7: Avoiding backtrack to node 3
% Step 7: Moved object 9 -> 4
% Step 7: Distribution: [0, 0, 1, 1, 0, 0, 0, 0, 0, 1, 0, 0, 0, 0]
% Step 8: Selected non-target node 4 (has 1 objects)
% Step 8: Moved object 4 -> 9
% Step 8: Distribution: [0, 0, 1, 0, 0, 0, 0, 0, 1, 1, 0, 0, 0, 0]
% Step 9: Selected non-target node 10 (has 1 objects)
% Step 9: Moved object 10 -> 12
% Step 9: Distribution: [0, 0, 1, 0, 0, 0, 0, 0, 1, 0, 0, 1, 0, 0]
% Step 10: Selected non-target node 3 (has 1 objects)
% Step 10: Avoiding backtrack to node 1
% Step 10: Moved object 3 -> 9
% Step 10: Distribution: [0, 0, 0, 0, 0, 0, 0, 0, 2, 0, 0, 1, 0, 0]
% Step 11: Selected non-target node 12 (has 1 objects)
% Step 11: Avoiding backtrack to node 10
% Step 11: Moved object 12 -> 5
% Step 11: Distribution: [0, 0, 0, 0, 1, 0, 0, 0, 2, 0, 0, 0, 0, 0]
% Truck starting position: 6
