% instance_n26_c1_k11_i87.dzn
% Generated instance for the Trucks problem
% N=26, h=6, k=11

% Number of nodes
N = 26;

% Number of objects
h = 6;

% Maximum plan length
%k = 11;

% Adjacency matrix (0-based internal, will be converted to 1-based)
Adj = [|0, 0, 0, 0, 0, 1, 0, 0, 0, 0, 0, 1, 1, 0, 0, 1, 0, 0, 0, 0, 0, 0, 0, 0, 0, 0
      |0, 0, 0, 0, 0, 0, 0, 0, 0, 0, 1, 0, 0, 0, 0, 0, 0, 0, 0, 0, 0, 0, 0, 0, 0, 0
      |0, 0, 0, 0, 0, 0, 0, 0, 0, 0, 0, 0, 0, 0, 0, 1, 0, 0, 0, 1, 0, 0, 0, 0, 0, 1
      |0, 0, 0, 0, 0, 0, 0, 0, 0, 0, 0, 1, 0, 1, 0, 0, 0, 0, 0, 0, 1, 0, 1, 0, 0, 1
      |0, 0, 0, 0, 0, 0, 0, 0, 0, 1, 0, 0, 0, 1, 0, 0, 0, 0, 0, 0, 0, 0, 0, 0, 0, 0
      |1, 0, 0, 0, 0, 0, 0, 0, 0, 0, 0, 0, 0, 0, 0, 0, 0, 1, 0, 0, 0, 0, 0, 0, 0, 0
      |0, 0, 0, 0, 0, 0, 0, 0, 0, 1, 0, 1, 0, 0, 0, 0, 0, 0, 0, 0, 0, 0, 0, 0, 0, 0
      |0, 0, 0, 0, 0, 0, 0, 0, 0, 0, 0, 0, 0, 0, 0, 0, 0, 0, 0, 0, 0, 0, 1, 0, 0, 0
      |0, 0, 0, 0, 0, 0, 0, 0, 0, 0, 0, 0, 1, 0, 0, 1, 0, 0, 0, 0, 0, 0, 0, 0, 0, 0
      |0, 0, 0, 0, 1, 0, 1, 0, 0, 0, 0, 0, 0, 0, 0, 0, 0, 0, 0, 0, 0, 0, 0, 1, 0, 0
      |0, 1, 0, 0, 0, 0, 0, 0, 0, 0, 0, 0, 0, 0, 0, 0, 0, 1, 1, 1, 0, 0, 0, 0, 0, 0
      |1, 0, 0, 1, 0, 0, 1, 0, 0, 0, 0, 0, 0, 0, 0, 0, 0, 0, 0, 0, 0, 0, 0, 1, 0, 0
      |1, 0, 0, 0, 0, 0, 0, 0, 1, 0, 0, 0, 0, 0, 0, 0, 0, 0, 0, 0, 0, 0, 0, 0, 0, 0
      |0, 0, 0, 1, 1, 0, 0, 0, 0, 0, 0, 0, 0, 0, 0, 0, 0, 0, 0, 0, 0, 0, 0, 0, 0, 0
      |0, 0, 0, 0, 0, 0, 0, 0, 0, 0, 0, 0, 0, 0, 0, 1, 0, 1, 0, 0, 0, 0, 0, 0, 1, 1
      |1, 0, 1, 0, 0, 0, 0, 0, 1, 0, 0, 0, 0, 0, 1, 0, 0, 0, 0, 0, 0, 0, 0, 0, 0, 0
      |0, 0, 0, 0, 0, 0, 0, 0, 0, 0, 0, 0, 0, 0, 0, 0, 0, 0, 0, 1, 0, 0, 1, 0, 0, 0
      |0, 0, 0, 0, 0, 1, 0, 0, 0, 0, 1, 0, 0, 0, 1, 0, 0, 0, 0, 0, 0, 0, 0, 0, 0, 0
      |0, 0, 0, 0, 0, 0, 0, 0, 0, 0, 1, 0, 0, 0, 0, 0, 0, 0, 0, 0, 0, 0, 0, 0, 0, 0
      |0, 0, 1, 0, 0, 0, 0, 0, 0, 0, 1, 0, 0, 0, 0, 0, 1, 0, 0, 0, 0, 1, 0, 0, 0, 0
      |0, 0, 0, 1, 0, 0, 0, 0, 0, 0, 0, 0, 0, 0, 0, 0, 0, 0, 0, 0, 0, 0, 0, 0, 0, 0
      |0, 0, 0, 0, 0, 0, 0, 0, 0, 0, 0, 0, 0, 0, 0, 0, 0, 0, 0, 1, 0, 0, 1, 0, 0, 0
      |0, 0, 0, 1, 0, 0, 0, 1, 0, 0, 0, 0, 0, 0, 0, 0, 1, 0, 0, 0, 0, 1, 0, 0, 0, 0
      |0, 0, 0, 0, 0, 0, 0, 0, 0, 1, 0, 1, 0, 0, 0, 0, 0, 0, 0, 0, 0, 0, 0, 0, 0, 0
      |0, 0, 0, 0, 0, 0, 0, 0, 0, 0, 0, 0, 0, 0, 1, 0, 0, 0, 0, 0, 0, 0, 0, 0, 0, 0
      |0, 0, 1, 1, 0, 0, 0, 0, 0, 0, 0, 0, 0, 0, 1, 0, 0, 0, 0, 0, 0, 0, 0, 0, 0, 0
      |];

% Weights matrix (edge weights)
% Weights = [|0, 0, 0, 0, 0, 3, 0, 0, 0, 0, 0, 4, 5, 0, 0, 2, 0, 0, 0, 0, 0, 0, 0, 0, 0, 0
%           |0, 0, 0, 0, 0, 0, 0, 0, 0, 0, 1, 0, 0, 0, 0, 0, 0, 0, 0, 0, 0, 0, 0, 0, 0, 0
%           |0, 0, 0, 0, 0, 0, 0, 0, 0, 0, 0, 0, 0, 0, 0, 3, 0, 0, 0, 3, 0, 0, 0, 0, 0, 5
%           |0, 0, 0, 0, 0, 0, 0, 0, 0, 0, 0, 3, 0, 4, 0, 0, 0, 0, 0, 0, 2, 0, 1, 0, 0, 2
%           |0, 0, 0, 0, 0, 0, 0, 0, 0, 5, 0, 0, 0, 1, 0, 0, 0, 0, 0, 0, 0, 0, 0, 0, 0, 0
%           |3, 0, 0, 0, 0, 0, 0, 0, 0, 0, 0, 0, 0, 0, 0, 0, 0, 2, 0, 0, 0, 0, 0, 0, 0, 0
%           |0, 0, 0, 0, 0, 0, 0, 0, 0, 3, 0, 3, 0, 0, 0, 0, 0, 0, 0, 0, 0, 0, 0, 0, 0, 0
%           |0, 0, 0, 0, 0, 0, 0, 0, 0, 0, 0, 0, 0, 0, 0, 0, 0, 0, 0, 0, 0, 0, 2, 0, 0, 0
%           |0, 0, 0, 0, 0, 0, 0, 0, 0, 0, 0, 0, 4, 0, 0, 4, 0, 0, 0, 0, 0, 0, 0, 0, 0, 0
%           |0, 0, 0, 0, 5, 0, 3, 0, 0, 0, 0, 0, 0, 0, 0, 0, 0, 0, 0, 0, 0, 0, 0, 4, 0, 0
%           |0, 1, 0, 0, 0, 0, 0, 0, 0, 0, 0, 0, 0, 0, 0, 0, 0, 1, 2, 3, 0, 0, 0, 0, 0, 0
%           |4, 0, 0, 3, 0, 0, 3, 0, 0, 0, 0, 0, 0, 0, 0, 0, 0, 0, 0, 0, 0, 0, 0, 4, 0, 0
%           |5, 0, 0, 0, 0, 0, 0, 0, 4, 0, 0, 0, 0, 0, 0, 0, 0, 0, 0, 0, 0, 0, 0, 0, 0, 0
%           |0, 0, 0, 4, 1, 0, 0, 0, 0, 0, 0, 0, 0, 0, 0, 0, 0, 0, 0, 0, 0, 0, 0, 0, 0, 0
%           |0, 0, 0, 0, 0, 0, 0, 0, 0, 0, 0, 0, 0, 0, 0, 1, 0, 3, 0, 0, 0, 0, 0, 0, 4, 5
%           |2, 0, 3, 0, 0, 0, 0, 0, 4, 0, 0, 0, 0, 0, 1, 0, 0, 0, 0, 0, 0, 0, 0, 0, 0, 0
%           |0, 0, 0, 0, 0, 0, 0, 0, 0, 0, 0, 0, 0, 0, 0, 0, 0, 0, 0, 3, 0, 0, 4, 0, 0, 0
%           |0, 0, 0, 0, 0, 2, 0, 0, 0, 0, 1, 0, 0, 0, 3, 0, 0, 0, 0, 0, 0, 0, 0, 0, 0, 0
%           |0, 0, 0, 0, 0, 0, 0, 0, 0, 0, 2, 0, 0, 0, 0, 0, 0, 0, 0, 0, 0, 0, 0, 0, 0, 0
%           |0, 0, 3, 0, 0, 0, 0, 0, 0, 0, 3, 0, 0, 0, 0, 0, 3, 0, 0, 0, 0, 5, 0, 0, 0, 0
%           |0, 0, 0, 2, 0, 0, 0, 0, 0, 0, 0, 0, 0, 0, 0, 0, 0, 0, 0, 0, 0, 0, 0, 0, 0, 0
%           |0, 0, 0, 0, 0, 0, 0, 0, 0, 0, 0, 0, 0, 0, 0, 0, 0, 0, 0, 5, 0, 0, 4, 0, 0, 0
%           |0, 0, 0, 1, 0, 0, 0, 2, 0, 0, 0, 0, 0, 0, 0, 0, 4, 0, 0, 0, 0, 4, 0, 0, 0, 0
%           |0, 0, 0, 0, 0, 0, 0, 0, 0, 4, 0, 4, 0, 0, 0, 0, 0, 0, 0, 0, 0, 0, 0, 0, 0, 0
%           |0, 0, 0, 0, 0, 0, 0, 0, 0, 0, 0, 0, 0, 0, 4, 0, 0, 0, 0, 0, 0, 0, 0, 0, 0, 0
%           |0, 0, 5, 2, 0, 0, 0, 0, 0, 0, 0, 0, 0, 0, 5, 0, 0, 0, 0, 0, 0, 0, 0, 0, 0, 0
%           |];

% Distance matrix
Dist = [|0, 7, 5, 7, 12, 3, 7, 10, 6, 10, 6, 4, 5, 11, 3, 2, 11, 5, 8, 8, 9, 12, 8, 8, 7, 8
      |7, 0, 7, 12, 17, 4, 14, 13, 10, 17, 1, 11, 12, 16, 5, 6, 7, 2, 3, 4, 14, 9, 11, 15, 9, 10
      |5, 7, 0, 7, 12, 8, 12, 10, 7, 15, 6, 9, 10, 11, 4, 3, 6, 7, 8, 3, 9, 8, 8, 13, 8, 5
      |7, 12, 7, 0, 5, 10, 6, 3, 12, 9, 11, 3, 12, 4, 7, 8, 5, 10, 13, 8, 2, 5, 1, 7, 11, 2
      |12, 17, 12, 5, 0, 15, 8, 8, 17, 5, 16, 8, 17, 1, 12, 13, 10, 15, 18, 13, 7, 10, 6, 9, 16, 7
      |3, 4, 8, 10, 15, 0, 10, 13, 9, 13, 3, 7, 8, 14, 5, 5, 9, 2, 5, 6, 12, 11, 11, 11, 9, 10
      |7, 14, 12, 6, 8, 10, 0, 9, 13, 3, 13, 3, 12, 9, 10, 9, 11, 12, 15, 14, 8, 11, 7, 7, 14, 8
      |10, 13, 10, 3, 8, 13, 9, 0, 15, 12, 12, 6, 15, 7, 10, 11, 6, 13, 14, 9, 5, 6, 2, 10, 14, 5
      |6, 10, 7, 12, 17, 9, 13, 15, 0, 16, 9, 10, 4, 16, 5, 4, 13, 8, 11, 10, 14, 15, 13, 14, 9, 10
      |10, 17, 15, 9, 5, 13, 3, 12, 16, 0, 16, 6, 15, 6, 13, 12, 14, 15, 18, 17, 11, 14, 10, 4, 17, 11
      |6, 1, 6, 11, 16, 3, 13, 12, 9, 16, 0, 10, 11, 15, 4, 5, 6, 1, 2, 3, 13, 8, 10, 14, 8, 9
      |4, 11, 9, 3, 8, 7, 3, 6, 10, 6, 10, 0, 9, 7, 7, 6, 8, 9, 12, 11, 5, 8, 4, 4, 11, 5
      |5, 12, 10, 12, 17, 8, 12, 15, 4, 15, 11, 9, 0, 16, 8, 7, 16, 10, 13, 13, 14, 17, 13, 13, 12, 13
      |11, 16, 11, 4, 1, 14, 9, 7, 16, 6, 15, 7, 16, 0, 11, 12, 9, 14, 17, 12, 6, 9, 5, 10, 15, 6
      |3, 5, 4, 7, 12, 5, 10, 10, 5, 13, 4, 7, 8, 11, 0, 1, 10, 3, 6, 7, 9, 12, 8, 11, 4, 5
      |2, 6, 3, 8, 13, 5, 9, 11, 4, 12, 5, 6, 7, 12, 1, 0, 9, 4, 7, 6, 10, 11, 9, 10, 5, 6
      |11, 7, 6, 5, 10, 9, 11, 6, 13, 14, 6, 8, 16, 9, 10, 9, 0, 7, 8, 3, 7, 8, 4, 12, 14, 7
      |5, 2, 7, 10, 15, 2, 12, 13, 8, 15, 1, 9, 10, 14, 3, 4, 7, 0, 3, 4, 12, 9, 11, 13, 7, 8
      |8, 3, 8, 13, 18, 5, 15, 14, 11, 18, 2, 12, 13, 17, 6, 7, 8, 3, 0, 5, 15, 10, 12, 16, 10, 11
      |8, 4, 3, 8, 13, 6, 14, 9, 10, 17, 3, 11, 13, 12, 7, 6, 3, 4, 5, 0, 10, 5, 7, 15, 11, 8
      |9, 14, 9, 2, 7, 12, 8, 5, 14, 11, 13, 5, 14, 6, 9, 10, 7, 12, 15, 10, 0, 7, 3, 9, 13, 4
      |12, 9, 8, 5, 10, 11, 11, 6, 15, 14, 8, 8, 17, 9, 12, 11, 8, 9, 10, 5, 7, 0, 4, 12, 16, 7
      |8, 11, 8, 1, 6, 11, 7, 2, 13, 10, 10, 4, 13, 5, 8, 9, 4, 11, 12, 7, 3, 4, 0, 8, 12, 3
      |8, 15, 13, 7, 9, 11, 7, 10, 14, 4, 14, 4, 13, 10, 11, 10, 12, 13, 16, 15, 9, 12, 8, 0, 15, 9
      |7, 9, 8, 11, 16, 9, 14, 14, 9, 17, 8, 11, 12, 15, 4, 5, 14, 7, 10, 11, 13, 16, 12, 15, 0, 9
      |8, 10, 5, 2, 7, 10, 8, 5, 10, 11, 9, 5, 13, 6, 5, 6, 7, 8, 11, 8, 4, 7, 3, 9, 9, 0
      |];

% Initial object distribution
S_init = [0, 0, 0, 0, 0, 0, 0, 0, 0, 0, 4, 0, 1, 0, 1, 0, 0, 0, 0, 0, 0, 0, 0, 0, 0, 0];

% Target nodes (1 if target, 0 otherwise)
T = [0, 1, 1, 0, 0, 0, 0, 0, 0, 0, 0, 0, 0, 0, 0, 0, 0, 1, 0, 1, 0, 0, 0, 0, 0, 0];

% Initial truck position (1-based indexing)
u = 4;

% --- DEBUG TRACE ---
% --- GENERATION TRACE (Backwards from Target) ---
% Initial distribution (all on targets): [0, 3, 1, 0, 0, 0, 0, 0, 0, 0, 0, 0, 0, 0, 0, 0, 0, 1, 0, 1, 0, 0, 0, 0, 0, 0]
% Step 1: Selected target node 2 (has 3 objects)
% Step 1: Moved object 2 -> 11
% Step 1: Distribution: [0, 2, 1, 0, 0, 0, 0, 0, 0, 0, 1, 0, 0, 0, 0, 0, 0, 1, 0, 1, 0, 0, 0, 0, 0, 0]
% Step 2: Selected target node 3 (has 1 objects)
% Step 2: Moved object 3 -> 16
% Step 2: Distribution: [0, 2, 0, 0, 0, 0, 0, 0, 0, 0, 1, 0, 0, 0, 0, 1, 0, 1, 0, 1, 0, 0, 0, 0, 0, 0]
% Step 3: Selected target node 18 (has 1 objects)
% Step 3: Moved object 18 -> 6
% Step 3: Distribution: [0, 2, 0, 0, 0, 1, 0, 0, 0, 0, 1, 0, 0, 0, 0, 1, 0, 0, 0, 1, 0, 0, 0, 0, 0, 0]
% Step 4: Selected target node 2 (has 2 objects)
% Step 4: Moved object 2 -> 11
% Step 4: Distribution: [0, 1, 0, 0, 0, 1, 0, 0, 0, 0, 2, 0, 0, 0, 0, 1, 0, 0, 0, 1, 0, 0, 0, 0, 0, 0]
% Step 5: Selected target node 20 (has 1 objects)
% Step 5: Moved object 20 -> 11
% Step 5: Distribution: [0, 1, 0, 0, 0, 1, 0, 0, 0, 0, 3, 0, 0, 0, 0, 1, 0, 0, 0, 0, 0, 0, 0, 0, 0, 0]
% Step 6: Selected target node 2 (has 1 objects)
% Step 6: Moved object 2 -> 11
% Step 6: Distribution: [0, 0, 0, 0, 0, 1, 0, 0, 0, 0, 4, 0, 0, 0, 0, 1, 0, 0, 0, 0, 0, 0, 0, 0, 0, 0]
% Step 7: Selected non-target node 16 (has 1 objects)
% Step 7: Avoiding backtrack to node 3
% Step 7: Moved object 16 -> 15
% Step 7: Distribution: [0, 0, 0, 0, 0, 1, 0, 0, 0, 0, 4, 0, 0, 0, 1, 0, 0, 0, 0, 0, 0, 0, 0, 0, 0, 0]
% Step 8: Selected non-target node 11 (has 4 objects)
% Step 8: Avoiding backtrack to node 2
% Step 8: Moved object 11 -> 19
% Step 8: Distribution: [0, 0, 0, 0, 0, 1, 0, 0, 0, 0, 3, 0, 0, 0, 1, 0, 0, 0, 1, 0, 0, 0, 0, 0, 0, 0]
% Step 9: Selected non-target node 6 (has 1 objects)
% Step 9: Avoiding backtrack to node 18
% Step 9: Moved object 6 -> 1
% Step 9: Distribution: [1, 0, 0, 0, 0, 0, 0, 0, 0, 0, 3, 0, 0, 0, 1, 0, 0, 0, 1, 0, 0, 0, 0, 0, 0, 0]
% Step 10: Selected non-target node 19 (has 1 objects)
% Step 10: Moved object 19 -> 11
% Step 10: Distribution: [1, 0, 0, 0, 0, 0, 0, 0, 0, 0, 4, 0, 0, 0, 1, 0, 0, 0, 0, 0, 0, 0, 0, 0, 0, 0]
% Step 11: Selected non-target node 1 (has 1 objects)
% Step 11: Avoiding backtrack to node 6
% Step 11: Moved object 1 -> 13
% Step 11: Distribution: [0, 0, 0, 0, 0, 0, 0, 0, 0, 0, 4, 0, 1, 0, 1, 0, 0, 0, 0, 0, 0, 0, 0, 0, 0, 0]
% Truck starting position: 4
