% instance_n22_c1_k5_i65.dzn
% Generated instance for the Trucks problem
% N=22, h=5, k=5

% Number of nodes
N = 22;

% Number of objects
h = 5;

% Maximum plan length
%k = 5;

% Adjacency matrix (0-based internal, will be converted to 1-based)
Adj = [|0, 0, 1, 1, 1, 0, 0, 0, 0, 1, 0, 0, 1, 0, 0, 0, 0, 0, 1, 0, 1, 0
      |0, 0, 1, 0, 0, 0, 0, 0, 0, 0, 0, 0, 0, 0, 1, 0, 0, 0, 0, 0, 0, 0
      |1, 1, 0, 0, 0, 0, 0, 0, 0, 0, 0, 1, 0, 0, 0, 0, 0, 0, 0, 1, 0, 0
      |1, 0, 0, 0, 0, 0, 0, 0, 0, 0, 0, 0, 0, 1, 0, 0, 0, 0, 0, 0, 0, 1
      |1, 0, 0, 0, 0, 0, 0, 0, 0, 0, 0, 0, 0, 0, 0, 0, 0, 0, 0, 1, 0, 0
      |0, 0, 0, 0, 0, 0, 0, 0, 0, 1, 0, 0, 0, 0, 1, 0, 0, 0, 0, 0, 0, 0
      |0, 0, 0, 0, 0, 0, 0, 0, 0, 0, 0, 0, 1, 0, 0, 1, 0, 0, 0, 0, 0, 0
      |0, 0, 0, 0, 0, 0, 0, 0, 1, 0, 0, 0, 0, 0, 0, 0, 1, 0, 0, 0, 0, 0
      |0, 0, 0, 0, 0, 0, 0, 1, 0, 0, 0, 1, 0, 0, 0, 0, 1, 0, 0, 0, 0, 0
      |1, 0, 0, 0, 0, 1, 0, 0, 0, 0, 0, 0, 0, 0, 0, 0, 0, 0, 0, 0, 1, 0
      |0, 0, 0, 0, 0, 0, 0, 0, 0, 0, 0, 0, 0, 0, 0, 0, 0, 1, 1, 0, 0, 0
      |0, 0, 1, 0, 0, 0, 0, 0, 1, 0, 0, 0, 1, 0, 1, 0, 0, 0, 0, 0, 0, 0
      |1, 0, 0, 0, 0, 0, 1, 0, 0, 0, 0, 1, 0, 0, 0, 0, 0, 0, 0, 0, 0, 0
      |0, 0, 0, 1, 0, 0, 0, 0, 0, 0, 0, 0, 0, 0, 0, 1, 0, 0, 0, 0, 0, 0
      |0, 1, 0, 0, 0, 1, 0, 0, 0, 0, 0, 1, 0, 0, 0, 0, 0, 0, 0, 0, 0, 0
      |0, 0, 0, 0, 0, 0, 1, 0, 0, 0, 0, 0, 0, 1, 0, 0, 0, 0, 1, 0, 0, 0
      |0, 0, 0, 0, 0, 0, 0, 1, 1, 0, 0, 0, 0, 0, 0, 0, 0, 0, 0, 0, 0, 0
      |0, 0, 0, 0, 0, 0, 0, 0, 0, 0, 1, 0, 0, 0, 0, 0, 0, 0, 0, 0, 0, 0
      |1, 0, 0, 0, 0, 0, 0, 0, 0, 0, 1, 0, 0, 0, 0, 1, 0, 0, 0, 0, 0, 0
      |0, 0, 1, 0, 1, 0, 0, 0, 0, 0, 0, 0, 0, 0, 0, 0, 0, 0, 0, 0, 0, 0
      |1, 0, 0, 0, 0, 0, 0, 0, 0, 1, 0, 0, 0, 0, 0, 0, 0, 0, 0, 0, 0, 0
      |0, 0, 0, 1, 0, 0, 0, 0, 0, 0, 0, 0, 0, 0, 0, 0, 0, 0, 0, 0, 0, 0
      |];

% Weights matrix (edge weights)
% Weights = [|0, 0, 1, 5, 2, 0, 0, 0, 0, 2, 0, 0, 1, 0, 0, 0, 0, 0, 2, 0, 2, 0
%           |0, 0, 3, 0, 0, 0, 0, 0, 0, 0, 0, 0, 0, 0, 3, 0, 0, 0, 0, 0, 0, 0
%           |1, 3, 0, 0, 0, 0, 0, 0, 0, 0, 0, 1, 0, 0, 0, 0, 0, 0, 0, 5, 0, 0
%           |5, 0, 0, 0, 0, 0, 0, 0, 0, 0, 0, 0, 0, 3, 0, 0, 0, 0, 0, 0, 0, 2
%           |2, 0, 0, 0, 0, 0, 0, 0, 0, 0, 0, 0, 0, 0, 0, 0, 0, 0, 0, 1, 0, 0
%           |0, 0, 0, 0, 0, 0, 0, 0, 0, 1, 0, 0, 0, 0, 2, 0, 0, 0, 0, 0, 0, 0
%           |0, 0, 0, 0, 0, 0, 0, 0, 0, 0, 0, 0, 1, 0, 0, 3, 0, 0, 0, 0, 0, 0
%           |0, 0, 0, 0, 0, 0, 0, 0, 1, 0, 0, 0, 0, 0, 0, 0, 4, 0, 0, 0, 0, 0
%           |0, 0, 0, 0, 0, 0, 0, 1, 0, 0, 0, 4, 0, 0, 0, 0, 5, 0, 0, 0, 0, 0
%           |2, 0, 0, 0, 0, 1, 0, 0, 0, 0, 0, 0, 0, 0, 0, 0, 0, 0, 0, 0, 1, 0
%           |0, 0, 0, 0, 0, 0, 0, 0, 0, 0, 0, 0, 0, 0, 0, 0, 0, 3, 1, 0, 0, 0
%           |0, 0, 1, 0, 0, 0, 0, 0, 4, 0, 0, 0, 1, 0, 4, 0, 0, 0, 0, 0, 0, 0
%           |1, 0, 0, 0, 0, 0, 1, 0, 0, 0, 0, 1, 0, 0, 0, 0, 0, 0, 0, 0, 0, 0
%           |0, 0, 0, 3, 0, 0, 0, 0, 0, 0, 0, 0, 0, 0, 0, 5, 0, 0, 0, 0, 0, 0
%           |0, 3, 0, 0, 0, 2, 0, 0, 0, 0, 0, 4, 0, 0, 0, 0, 0, 0, 0, 0, 0, 0
%           |0, 0, 0, 0, 0, 0, 3, 0, 0, 0, 0, 0, 0, 5, 0, 0, 0, 0, 5, 0, 0, 0
%           |0, 0, 0, 0, 0, 0, 0, 4, 5, 0, 0, 0, 0, 0, 0, 0, 0, 0, 0, 0, 0, 0
%           |0, 0, 0, 0, 0, 0, 0, 0, 0, 0, 3, 0, 0, 0, 0, 0, 0, 0, 0, 0, 0, 0
%           |2, 0, 0, 0, 0, 0, 0, 0, 0, 0, 1, 0, 0, 0, 0, 5, 0, 0, 0, 0, 0, 0
%           |0, 0, 5, 0, 1, 0, 0, 0, 0, 0, 0, 0, 0, 0, 0, 0, 0, 0, 0, 0, 0, 0
%           |2, 0, 0, 0, 0, 0, 0, 0, 0, 1, 0, 0, 0, 0, 0, 0, 0, 0, 0, 0, 0, 0
%           |0, 0, 0, 2, 0, 0, 0, 0, 0, 0, 0, 0, 0, 0, 0, 0, 0, 0, 0, 0, 0, 0
%           |];

% Distance matrix
Dist = [|0, 4, 1, 5, 2, 3, 2, 7, 6, 2, 3, 2, 1, 8, 5, 5, 11, 6, 2, 3, 2, 7
      |4, 0, 3, 9, 6, 5, 6, 9, 8, 6, 7, 4, 5, 12, 3, 9, 13, 10, 6, 7, 6, 11
      |1, 3, 0, 6, 3, 4, 3, 6, 5, 3, 4, 1, 2, 9, 5, 6, 10, 7, 3, 4, 3, 8
      |5, 9, 6, 0, 7, 8, 7, 12, 11, 7, 8, 7, 6, 3, 10, 8, 16, 11, 7, 8, 7, 2
      |2, 6, 3, 7, 0, 5, 4, 9, 8, 4, 5, 4, 3, 10, 7, 7, 13, 8, 4, 1, 4, 9
      |3, 5, 4, 8, 5, 0, 5, 10, 9, 1, 6, 5, 4, 11, 2, 8, 14, 9, 5, 6, 2, 10
      |2, 6, 3, 7, 4, 5, 0, 7, 6, 4, 5, 2, 1, 8, 6, 3, 11, 8, 4, 5, 4, 9
      |7, 9, 6, 12, 9, 10, 7, 0, 1, 9, 10, 5, 6, 15, 9, 10, 4, 13, 9, 10, 9, 14
      |6, 8, 5, 11, 8, 9, 6, 1, 0, 8, 9, 4, 5, 14, 8, 9, 5, 12, 8, 9, 8, 13
      |2, 6, 3, 7, 4, 1, 4, 9, 8, 0, 5, 4, 3, 10, 3, 7, 13, 8, 4, 5, 1, 9
      |3, 7, 4, 8, 5, 6, 5, 10, 9, 5, 0, 5, 4, 11, 8, 6, 14, 3, 1, 6, 5, 10
      |2, 4, 1, 7, 4, 5, 2, 5, 4, 4, 5, 0, 1, 10, 4, 5, 9, 8, 4, 5, 4, 9
      |1, 5, 2, 6, 3, 4, 1, 6, 5, 3, 4, 1, 0, 9, 5, 4, 10, 7, 3, 4, 3, 8
      |8, 12, 9, 3, 10, 11, 8, 15, 14, 10, 11, 10, 9, 0, 13, 5, 19, 14, 10, 11, 10, 5
      |5, 3, 5, 10, 7, 2, 6, 9, 8, 3, 8, 4, 5, 13, 0, 9, 13, 11, 7, 8, 4, 12
      |5, 9, 6, 8, 7, 8, 3, 10, 9, 7, 6, 5, 4, 5, 9, 0, 14, 9, 5, 8, 7, 10
      |11, 13, 10, 16, 13, 14, 11, 4, 5, 13, 14, 9, 10, 19, 13, 14, 0, 17, 13, 14, 13, 18
      |6, 10, 7, 11, 8, 9, 8, 13, 12, 8, 3, 8, 7, 14, 11, 9, 17, 0, 4, 9, 8, 13
      |2, 6, 3, 7, 4, 5, 4, 9, 8, 4, 1, 4, 3, 10, 7, 5, 13, 4, 0, 5, 4, 9
      |3, 7, 4, 8, 1, 6, 5, 10, 9, 5, 6, 5, 4, 11, 8, 8, 14, 9, 5, 0, 5, 10
      |2, 6, 3, 7, 4, 2, 4, 9, 8, 1, 5, 4, 3, 10, 4, 7, 13, 8, 4, 5, 0, 9
      |7, 11, 8, 2, 9, 10, 9, 14, 13, 9, 10, 9, 8, 5, 12, 10, 18, 13, 9, 10, 9, 0
      |];

% Initial object distribution
S_init = [2, 0, 0, 0, 0, 0, 0, 0, 0, 0, 0, 0, 0, 0, 1, 1, 0, 0, 0, 1, 0, 0];

% Target nodes (1 if target, 0 otherwise)
T = [0, 1, 0, 0, 1, 0, 0, 0, 0, 1, 0, 0, 0, 1, 0, 0, 0, 0, 0, 0, 1, 0];

% Initial truck position (1-based indexing)
u = 3;

% --- DEBUG TRACE ---
% --- GENERATION TRACE (Backwards from Target) ---
% Initial distribution (all on targets): [0, 1, 0, 0, 1, 0, 0, 0, 0, 1, 0, 0, 0, 1, 0, 0, 0, 0, 0, 0, 1, 0]
% Step 1: Selected target node 10 (has 1 objects)
% Step 1: Moved object 10 -> 1
% Step 1: Distribution: [1, 1, 0, 0, 1, 0, 0, 0, 0, 0, 0, 0, 0, 1, 0, 0, 0, 0, 0, 0, 1, 0]
% Step 2: Selected target node 21 (has 1 objects)
% Step 2: Moved object 21 -> 1
% Step 2: Distribution: [2, 1, 0, 0, 1, 0, 0, 0, 0, 0, 0, 0, 0, 1, 0, 0, 0, 0, 0, 0, 0, 0]
% Step 3: Selected target node 2 (has 1 objects)
% Step 3: Moved object 2 -> 15
% Step 3: Distribution: [2, 0, 0, 0, 1, 0, 0, 0, 0, 0, 0, 0, 0, 1, 1, 0, 0, 0, 0, 0, 0, 0]
% Step 4: Selected target node 5 (has 1 objects)
% Step 4: Moved object 5 -> 20
% Step 4: Distribution: [2, 0, 0, 0, 0, 0, 0, 0, 0, 0, 0, 0, 0, 1, 1, 0, 0, 0, 0, 1, 0, 0]
% Step 5: Selected target node 14 (has 1 objects)
% Step 5: Moved object 14 -> 16
% Step 5: Distribution: [2, 0, 0, 0, 0, 0, 0, 0, 0, 0, 0, 0, 0, 0, 1, 1, 0, 0, 0, 1, 0, 0]
% Truck starting position: 3
