% instance_n18_c1_k11_i47.dzn
% Generated instance for the Trucks problem
% N=18, h=4, k=11

% Number of nodes
N = 18;

% Number of objects
h = 4;

% Maximum plan length
%k = 11;

% Adjacency matrix (0-based internal, will be converted to 1-based)
Adj = [|0, 0, 0, 0, 0, 0, 0, 1, 0, 0, 0, 0, 0, 0, 1, 0, 0, 1
      |0, 0, 0, 1, 0, 0, 0, 0, 0, 0, 0, 0, 0, 0, 0, 0, 0, 0
      |0, 0, 0, 0, 1, 0, 0, 1, 0, 0, 1, 0, 0, 0, 0, 0, 0, 0
      |0, 1, 0, 0, 0, 0, 0, 0, 1, 0, 0, 0, 0, 0, 0, 0, 0, 0
      |0, 0, 1, 0, 0, 0, 1, 0, 0, 0, 0, 0, 1, 0, 0, 0, 0, 0
      |0, 0, 0, 0, 0, 0, 0, 0, 0, 0, 0, 0, 0, 0, 1, 0, 0, 0
      |0, 0, 0, 0, 1, 0, 0, 0, 0, 0, 0, 0, 1, 0, 1, 0, 0, 0
      |1, 0, 1, 0, 0, 0, 0, 0, 0, 0, 0, 0, 0, 0, 0, 0, 0, 0
      |0, 0, 0, 1, 0, 0, 0, 0, 0, 0, 0, 0, 0, 0, 0, 1, 1, 0
      |0, 0, 0, 0, 0, 0, 0, 0, 0, 0, 1, 0, 0, 1, 0, 0, 0, 0
      |0, 0, 1, 0, 0, 0, 0, 0, 0, 1, 0, 0, 0, 0, 1, 0, 0, 0
      |0, 0, 0, 0, 0, 0, 0, 0, 0, 0, 0, 0, 0, 0, 1, 0, 0, 0
      |0, 0, 0, 0, 1, 0, 1, 0, 0, 0, 0, 0, 0, 0, 0, 0, 0, 0
      |0, 0, 0, 0, 0, 0, 0, 0, 0, 1, 0, 0, 0, 0, 1, 1, 0, 0
      |1, 0, 0, 0, 0, 1, 1, 0, 0, 0, 1, 1, 0, 1, 0, 0, 0, 0
      |0, 0, 0, 0, 0, 0, 0, 0, 1, 0, 0, 0, 0, 1, 0, 0, 1, 0
      |0, 0, 0, 0, 0, 0, 0, 0, 1, 0, 0, 0, 0, 0, 0, 1, 0, 0
      |1, 0, 0, 0, 0, 0, 0, 0, 0, 0, 0, 0, 0, 0, 0, 0, 0, 0
      |];

% Weights matrix (edge weights)
% Weights = [|0, 0, 0, 0, 0, 0, 0, 5, 0, 0, 0, 0, 0, 0, 2, 0, 0, 2
%           |0, 0, 0, 2, 0, 0, 0, 0, 0, 0, 0, 0, 0, 0, 0, 0, 0, 0
%           |0, 0, 0, 0, 1, 0, 0, 5, 0, 0, 3, 0, 0, 0, 0, 0, 0, 0
%           |0, 2, 0, 0, 0, 0, 0, 0, 4, 0, 0, 0, 0, 0, 0, 0, 0, 0
%           |0, 0, 1, 0, 0, 0, 2, 0, 0, 0, 0, 0, 1, 0, 0, 0, 0, 0
%           |0, 0, 0, 0, 0, 0, 0, 0, 0, 0, 0, 0, 0, 0, 5, 0, 0, 0
%           |0, 0, 0, 0, 2, 0, 0, 0, 0, 0, 0, 0, 5, 0, 1, 0, 0, 0
%           |5, 0, 5, 0, 0, 0, 0, 0, 0, 0, 0, 0, 0, 0, 0, 0, 0, 0
%           |0, 0, 0, 4, 0, 0, 0, 0, 0, 0, 0, 0, 0, 0, 0, 2, 5, 0
%           |0, 0, 0, 0, 0, 0, 0, 0, 0, 0, 2, 0, 0, 5, 0, 0, 0, 0
%           |0, 0, 3, 0, 0, 0, 0, 0, 0, 2, 0, 0, 0, 0, 1, 0, 0, 0
%           |0, 0, 0, 0, 0, 0, 0, 0, 0, 0, 0, 0, 0, 0, 1, 0, 0, 0
%           |0, 0, 0, 0, 1, 0, 5, 0, 0, 0, 0, 0, 0, 0, 0, 0, 0, 0
%           |0, 0, 0, 0, 0, 0, 0, 0, 0, 5, 0, 0, 0, 0, 4, 3, 0, 0
%           |2, 0, 0, 0, 0, 5, 1, 0, 0, 0, 1, 1, 0, 4, 0, 0, 0, 0
%           |0, 0, 0, 0, 0, 0, 0, 0, 2, 0, 0, 0, 0, 3, 0, 0, 4, 0
%           |0, 0, 0, 0, 0, 0, 0, 0, 5, 0, 0, 0, 0, 0, 0, 4, 0, 0
%           |2, 0, 0, 0, 0, 0, 0, 0, 0, 0, 0, 0, 0, 0, 0, 0, 0, 0
%           |];

% Distance matrix
Dist = [|0, 17, 6, 15, 5, 7, 3, 5, 11, 5, 3, 3, 6, 6, 2, 9, 13, 2
      |17, 0, 19, 2, 18, 20, 16, 22, 6, 16, 16, 16, 19, 11, 15, 8, 11, 19
      |6, 19, 0, 17, 1, 9, 3, 5, 13, 5, 3, 5, 2, 8, 4, 11, 15, 8
      |15, 2, 17, 0, 16, 18, 14, 20, 4, 14, 14, 14, 17, 9, 13, 6, 9, 17
      |5, 18, 1, 16, 0, 8, 2, 6, 12, 6, 4, 4, 1, 7, 3, 10, 14, 7
      |7, 20, 9, 18, 8, 0, 6, 12, 14, 8, 6, 6, 9, 9, 5, 12, 16, 9
      |3, 16, 3, 14, 2, 6, 0, 8, 10, 4, 2, 2, 3, 5, 1, 8, 12, 5
      |5, 22, 5, 20, 6, 12, 8, 0, 16, 10, 8, 8, 7, 11, 7, 14, 18, 7
      |11, 6, 13, 4, 12, 14, 10, 16, 0, 10, 10, 10, 13, 5, 9, 2, 5, 13
      |5, 16, 5, 14, 6, 8, 4, 10, 10, 0, 2, 4, 7, 5, 3, 8, 12, 7
      |3, 16, 3, 14, 4, 6, 2, 8, 10, 2, 0, 2, 5, 5, 1, 8, 12, 5
      |3, 16, 5, 14, 4, 6, 2, 8, 10, 4, 2, 0, 5, 5, 1, 8, 12, 5
      |6, 19, 2, 17, 1, 9, 3, 7, 13, 7, 5, 5, 0, 8, 4, 11, 15, 8
      |6, 11, 8, 9, 7, 9, 5, 11, 5, 5, 5, 5, 8, 0, 4, 3, 7, 8
      |2, 15, 4, 13, 3, 5, 1, 7, 9, 3, 1, 1, 4, 4, 0, 7, 11, 4
      |9, 8, 11, 6, 10, 12, 8, 14, 2, 8, 8, 8, 11, 3, 7, 0, 4, 11
      |13, 11, 15, 9, 14, 16, 12, 18, 5, 12, 12, 12, 15, 7, 11, 4, 0, 15
      |2, 19, 8, 17, 7, 9, 5, 7, 13, 7, 5, 5, 8, 8, 4, 11, 15, 0
      |];

% Initial object distribution
S_init = [0, 0, 0, 0, 1, 0, 0, 0, 0, 0, 0, 0, 0, 0, 3, 0, 0, 0];

% Target nodes (1 if target, 0 otherwise)
T = [0, 0, 1, 0, 0, 0, 0, 1, 1, 0, 0, 0, 0, 0, 0, 0, 0, 0];

% Initial truck position (1-based indexing)
u = 11;

% --- DEBUG TRACE ---
% --- GENERATION TRACE (Backwards from Target) ---
% Initial distribution (all on targets): [0, 0, 2, 0, 0, 0, 0, 1, 1, 0, 0, 0, 0, 0, 0, 0, 0, 0]
% Step 1: Selected target node 9 (has 1 objects)
% Step 1: Moved object 9 -> 17
% Step 1: Distribution: [0, 0, 2, 0, 0, 0, 0, 1, 0, 0, 0, 0, 0, 0, 0, 0, 1, 0]
% Step 2: Selected target node 8 (has 1 objects)
% Step 2: Moved object 8 -> 1
% Step 2: Distribution: [1, 0, 2, 0, 0, 0, 0, 0, 0, 0, 0, 0, 0, 0, 0, 0, 1, 0]
% Step 3: Selected target node 3 (has 2 objects)
% Step 3: Moved object 3 -> 11
% Step 3: Distribution: [1, 0, 1, 0, 0, 0, 0, 0, 0, 0, 1, 0, 0, 0, 0, 0, 1, 0]
% Step 4: Selected target node 3 (has 1 objects)
% Step 4: Moved object 3 -> 5
% Step 4: Distribution: [1, 0, 0, 0, 1, 0, 0, 0, 0, 0, 1, 0, 0, 0, 0, 0, 1, 0]
% Step 5: Selected non-target node 1 (has 1 objects)
% Step 5: Avoiding backtrack to node 8
% Step 5: Moved object 1 -> 18
% Step 5: Distribution: [0, 0, 0, 0, 1, 0, 0, 0, 0, 0, 1, 0, 0, 0, 0, 0, 1, 1]
% Step 6: Selected non-target node 17 (has 1 objects)
% Step 6: Avoiding backtrack to node 9
% Step 6: Moved object 17 -> 16
% Step 6: Distribution: [0, 0, 0, 0, 1, 0, 0, 0, 0, 0, 1, 0, 0, 0, 0, 1, 0, 1]
% Step 7: Selected non-target node 11 (has 1 objects)
% Step 7: Avoiding backtrack to node 3
% Step 7: Moved object 11 -> 15
% Step 7: Distribution: [0, 0, 0, 0, 1, 0, 0, 0, 0, 0, 0, 0, 0, 0, 1, 1, 0, 1]
% Step 8: Selected non-target node 16 (has 1 objects)
% Step 8: Avoiding backtrack to node 17
% Step 8: Moved object 16 -> 14
% Step 8: Distribution: [0, 0, 0, 0, 1, 0, 0, 0, 0, 0, 0, 0, 0, 1, 1, 0, 0, 1]
% Step 9: Selected non-target node 14 (has 1 objects)
% Step 9: Avoiding backtrack to node 16
% Step 9: Moved object 14 -> 15
% Step 9: Distribution: [0, 0, 0, 0, 1, 0, 0, 0, 0, 0, 0, 0, 0, 0, 2, 0, 0, 1]
% Step 10: Selected non-target node 18 (has 1 objects)
% Step 10: Moved object 18 -> 1
% Step 10: Distribution: [1, 0, 0, 0, 1, 0, 0, 0, 0, 0, 0, 0, 0, 0, 2, 0, 0, 0]
% Step 11: Selected non-target node 1 (has 1 objects)
% Step 11: Avoiding backtrack to node 18
% Step 11: Moved object 1 -> 15
% Step 11: Distribution: [0, 0, 0, 0, 1, 0, 0, 0, 0, 0, 0, 0, 0, 0, 3, 0, 0, 0]
% Truck starting position: 11
