% instance_n18_c1_k14_i48.dzn
% Generated instance for the Trucks problem
% N=18, h=4, k=14

% Number of nodes
N = 18;

% Number of objects
h = 4;

% Maximum plan length
%k = 14;

% Adjacency matrix (0-based internal, will be converted to 1-based)
Adj = [|0, 1, 0, 0, 1, 0, 1, 0, 1, 0, 1, 0, 0, 0, 0, 1, 0, 0
      |1, 0, 1, 0, 0, 0, 0, 0, 0, 1, 0, 1, 0, 0, 0, 0, 0, 0
      |0, 1, 0, 0, 0, 0, 0, 0, 0, 0, 0, 0, 0, 0, 0, 0, 0, 0
      |0, 0, 0, 0, 1, 0, 0, 0, 0, 0, 0, 0, 0, 0, 0, 0, 0, 0
      |1, 0, 0, 1, 0, 0, 0, 0, 0, 1, 0, 0, 0, 0, 0, 0, 1, 0
      |0, 0, 0, 0, 0, 0, 0, 0, 0, 0, 0, 1, 0, 0, 0, 0, 1, 0
      |1, 0, 0, 0, 0, 0, 0, 0, 0, 0, 0, 0, 0, 1, 0, 0, 0, 0
      |0, 0, 0, 0, 0, 0, 0, 0, 0, 1, 0, 0, 0, 0, 0, 0, 0, 0
      |1, 0, 0, 0, 0, 0, 0, 0, 0, 0, 0, 0, 1, 0, 0, 0, 0, 1
      |0, 1, 0, 0, 1, 0, 0, 1, 0, 0, 0, 0, 0, 0, 0, 0, 0, 0
      |1, 0, 0, 0, 0, 0, 0, 0, 0, 0, 0, 0, 0, 1, 1, 0, 0, 0
      |0, 1, 0, 0, 0, 1, 0, 0, 0, 0, 0, 0, 0, 1, 1, 0, 0, 0
      |0, 0, 0, 0, 0, 0, 0, 0, 1, 0, 0, 0, 0, 0, 0, 0, 0, 0
      |0, 0, 0, 0, 0, 0, 1, 0, 0, 0, 1, 1, 0, 0, 0, 0, 0, 0
      |0, 0, 0, 0, 0, 0, 0, 0, 0, 0, 1, 1, 0, 0, 0, 0, 0, 1
      |1, 0, 0, 0, 0, 0, 0, 0, 0, 0, 0, 0, 0, 0, 0, 0, 0, 0
      |0, 0, 0, 0, 1, 1, 0, 0, 0, 0, 0, 0, 0, 0, 0, 0, 0, 0
      |0, 0, 0, 0, 0, 0, 0, 0, 1, 0, 0, 0, 0, 0, 1, 0, 0, 0
      |];

% Weights matrix (edge weights)
% Weights = [|0, 5, 0, 0, 5, 0, 2, 0, 3, 0, 1, 0, 0, 0, 0, 3, 0, 0
%           |5, 0, 1, 0, 0, 0, 0, 0, 0, 1, 0, 4, 0, 0, 0, 0, 0, 0
%           |0, 1, 0, 0, 0, 0, 0, 0, 0, 0, 0, 0, 0, 0, 0, 0, 0, 0
%           |0, 0, 0, 0, 2, 0, 0, 0, 0, 0, 0, 0, 0, 0, 0, 0, 0, 0
%           |5, 0, 0, 2, 0, 0, 0, 0, 0, 5, 0, 0, 0, 0, 0, 0, 5, 0
%           |0, 0, 0, 0, 0, 0, 0, 0, 0, 0, 0, 4, 0, 0, 0, 0, 1, 0
%           |2, 0, 0, 0, 0, 0, 0, 0, 0, 0, 0, 0, 0, 3, 0, 0, 0, 0
%           |0, 0, 0, 0, 0, 0, 0, 0, 0, 1, 0, 0, 0, 0, 0, 0, 0, 0
%           |3, 0, 0, 0, 0, 0, 0, 0, 0, 0, 0, 0, 3, 0, 0, 0, 0, 5
%           |0, 1, 0, 0, 5, 0, 0, 1, 0, 0, 0, 0, 0, 0, 0, 0, 0, 0
%           |1, 0, 0, 0, 0, 0, 0, 0, 0, 0, 0, 0, 0, 4, 1, 0, 0, 0
%           |0, 4, 0, 0, 0, 4, 0, 0, 0, 0, 0, 0, 0, 3, 3, 0, 0, 0
%           |0, 0, 0, 0, 0, 0, 0, 0, 3, 0, 0, 0, 0, 0, 0, 0, 0, 0
%           |0, 0, 0, 0, 0, 0, 3, 0, 0, 0, 4, 3, 0, 0, 0, 0, 0, 0
%           |0, 0, 0, 0, 0, 0, 0, 0, 0, 0, 1, 3, 0, 0, 0, 0, 0, 5
%           |3, 0, 0, 0, 0, 0, 0, 0, 0, 0, 0, 0, 0, 0, 0, 0, 0, 0
%           |0, 0, 0, 0, 5, 1, 0, 0, 0, 0, 0, 0, 0, 0, 0, 0, 0, 0
%           |0, 0, 0, 0, 0, 0, 0, 0, 5, 0, 0, 0, 0, 0, 5, 0, 0, 0
%           |];

% Distance matrix
Dist = [|0, 5, 6, 7, 5, 9, 2, 7, 3, 6, 1, 5, 6, 5, 2, 3, 10, 7
      |5, 0, 1, 8, 6, 8, 7, 2, 8, 1, 6, 4, 11, 7, 7, 8, 9, 12
      |6, 1, 0, 9, 7, 9, 8, 3, 9, 2, 7, 5, 12, 8, 8, 9, 10, 13
      |7, 8, 9, 0, 2, 8, 9, 8, 10, 7, 8, 12, 13, 12, 9, 10, 7, 14
      |5, 6, 7, 2, 0, 6, 7, 6, 8, 5, 6, 10, 11, 10, 7, 8, 5, 12
      |9, 8, 9, 8, 6, 0, 10, 10, 12, 9, 8, 4, 15, 7, 7, 12, 1, 12
      |2, 7, 8, 9, 7, 10, 0, 9, 5, 8, 3, 6, 8, 3, 4, 5, 11, 9
      |7, 2, 3, 8, 6, 10, 9, 0, 10, 1, 8, 6, 13, 9, 9, 10, 11, 14
      |3, 8, 9, 10, 8, 12, 5, 10, 0, 9, 4, 8, 3, 8, 5, 6, 13, 5
      |6, 1, 2, 7, 5, 9, 8, 1, 9, 0, 7, 5, 12, 8, 8, 9, 10, 13
      |1, 6, 7, 8, 6, 8, 3, 8, 4, 7, 0, 4, 7, 4, 1, 4, 9, 6
      |5, 4, 5, 12, 10, 4, 6, 6, 8, 5, 4, 0, 11, 3, 3, 8, 5, 8
      |6, 11, 12, 13, 11, 15, 8, 13, 3, 12, 7, 11, 0, 11, 8, 9, 16, 8
      |5, 7, 8, 12, 10, 7, 3, 9, 8, 8, 4, 3, 11, 0, 5, 8, 8, 10
      |2, 7, 8, 9, 7, 7, 4, 9, 5, 8, 1, 3, 8, 5, 0, 5, 8, 5
      |3, 8, 9, 10, 8, 12, 5, 10, 6, 9, 4, 8, 9, 8, 5, 0, 13, 10
      |10, 9, 10, 7, 5, 1, 11, 11, 13, 10, 9, 5, 16, 8, 8, 13, 0, 13
      |7, 12, 13, 14, 12, 12, 9, 14, 5, 13, 6, 8, 8, 10, 5, 10, 13, 0
      |];

% Initial object distribution
S_init = [0, 0, 1, 0, 0, 0, 0, 1, 0, 0, 0, 1, 0, 1, 0, 0, 0, 0];

% Target nodes (1 if target, 0 otherwise)
T = [0, 1, 0, 0, 0, 0, 0, 0, 1, 1, 0, 0, 0, 0, 0, 0, 0, 0];

% Initial truck position (1-based indexing)
u = 12;

% --- DEBUG TRACE ---
% --- GENERATION TRACE (Backwards from Target) ---
% Initial distribution (all on targets): [0, 1, 0, 0, 0, 0, 0, 0, 1, 2, 0, 0, 0, 0, 0, 0, 0, 0]
% Step 1: Selected target node 10 (has 2 objects)
% Step 1: Moved object 10 -> 5
% Step 1: Distribution: [0, 1, 0, 0, 1, 0, 0, 0, 1, 1, 0, 0, 0, 0, 0, 0, 0, 0]
% Step 2: Selected target node 9 (has 1 objects)
% Step 2: Moved object 9 -> 18
% Step 2: Distribution: [0, 1, 0, 0, 1, 0, 0, 0, 0, 1, 0, 0, 0, 0, 0, 0, 0, 1]
% Step 3: Selected target node 2 (has 1 objects)
% Step 3: Moved object 2 -> 3
% Step 3: Distribution: [0, 0, 1, 0, 1, 0, 0, 0, 0, 1, 0, 0, 0, 0, 0, 0, 0, 1]
% Step 4: Selected target node 10 (has 1 objects)
% Step 4: Moved object 10 -> 8
% Step 4: Distribution: [0, 0, 1, 0, 1, 0, 0, 1, 0, 0, 0, 0, 0, 0, 0, 0, 0, 1]
% Step 5: Selected non-target node 3 (has 1 objects)
% Step 5: Selected non-target node 8 (has 1 objects)
% Step 5: Selected non-target node 5 (has 1 objects)
% Step 5: Avoiding backtrack to node 10
% Step 5: Moved object 5 -> 17
% Step 5: Distribution: [0, 0, 1, 0, 0, 0, 0, 1, 0, 0, 0, 0, 0, 0, 0, 0, 1, 1]
% Step 6: Selected non-target node 8 (has 1 objects)
% Step 6: Selected non-target node 18 (has 1 objects)
% Step 6: Avoiding backtrack to node 9
% Step 6: Moved object 18 -> 15
% Step 6: Distribution: [0, 0, 1, 0, 0, 0, 0, 1, 0, 0, 0, 0, 0, 0, 1, 0, 1, 0]
% Step 7: Selected non-target node 17 (has 1 objects)
% Step 7: Avoiding backtrack to node 5
% Step 7: Moved object 17 -> 6
% Step 7: Distribution: [0, 0, 1, 0, 0, 1, 0, 1, 0, 0, 0, 0, 0, 0, 1, 0, 0, 0]
% Step 8: Selected non-target node 8 (has 1 objects)
% Step 8: Selected non-target node 15 (has 1 objects)
% Step 8: Avoiding backtrack to node 18
% Step 8: Moved object 15 -> 12
% Step 8: Distribution: [0, 0, 1, 0, 0, 1, 0, 1, 0, 0, 0, 1, 0, 0, 0, 0, 0, 0]
% Step 9: Selected non-target node 8 (has 1 objects)
% Step 9: Selected non-target node 6 (has 1 objects)
% Step 9: Avoiding backtrack to node 17
% Step 9: Moved object 6 -> 12
% Step 9: Distribution: [0, 0, 1, 0, 0, 0, 0, 1, 0, 0, 0, 2, 0, 0, 0, 0, 0, 0]
% Step 10: Selected non-target node 3 (has 1 objects)
% Step 10: Selected non-target node 12 (has 2 objects)
% Step 10: Avoiding backtrack to node 6
% Step 10: Moved object 12 -> 15
% Step 10: Distribution: [0, 0, 1, 0, 0, 0, 0, 1, 0, 0, 0, 1, 0, 0, 1, 0, 0, 0]
% Step 11: Selected non-target node 3 (has 1 objects)
% Step 11: Selected non-target node 8 (has 1 objects)
% Step 11: Selected non-target node 15 (has 1 objects)
% Step 11: Avoiding backtrack to node 12
% Step 11: Moved object 15 -> 18
% Step 11: Distribution: [0, 0, 1, 0, 0, 0, 0, 1, 0, 0, 0, 1, 0, 0, 0, 0, 0, 1]
% Step 12: Selected non-target node 18 (has 1 objects)
% Step 12: Moved object 18 -> 15
% Step 12: Distribution: [0, 0, 1, 0, 0, 0, 0, 1, 0, 0, 0, 1, 0, 0, 1, 0, 0, 0]
% Step 13: Selected non-target node 12 (has 1 objects)
% Step 13: Avoiding backtrack to node 6
% Step 13: Moved object 12 -> 14
% Step 13: Distribution: [0, 0, 1, 0, 0, 0, 0, 1, 0, 0, 0, 0, 0, 1, 1, 0, 0, 0]
% Step 14: Selected non-target node 15 (has 1 objects)
% Step 14: Avoiding backtrack to node 18
% Step 14: Moved object 15 -> 12
% Step 14: Distribution: [0, 0, 1, 0, 0, 0, 0, 1, 0, 0, 0, 1, 0, 1, 0, 0, 0, 0]
% Truck starting position: 12
