% instance_n26_c0_k5_i80.dzn
% Generated instance for the Trucks problem
% N=26, h=6, k=5

% Number of nodes
N = 26;

% Number of objects
h = 6;

% Maximum plan length
%k = 5;

% Adjacency matrix (0-based internal, will be converted to 1-based)
Adj = [|0, 0, 0, 0, 0, 1, 0, 0, 0, 0, 1, 0, 0, 0, 0, 0, 0, 0, 0, 0, 1, 0, 0, 0, 1, 0
      |0, 0, 0, 0, 0, 0, 0, 0, 1, 0, 0, 0, 0, 0, 0, 0, 0, 0, 0, 1, 0, 0, 0, 0, 0, 0
      |0, 0, 0, 1, 0, 1, 0, 0, 1, 0, 0, 1, 0, 0, 1, 0, 1, 0, 0, 0, 0, 0, 0, 0, 0, 0
      |0, 0, 1, 0, 0, 0, 0, 0, 0, 0, 0, 0, 0, 0, 0, 0, 0, 0, 0, 0, 0, 0, 0, 0, 0, 0
      |0, 0, 0, 0, 0, 1, 0, 0, 0, 1, 0, 0, 0, 0, 0, 0, 0, 0, 0, 0, 0, 0, 0, 0, 0, 0
      |1, 0, 1, 0, 1, 0, 0, 1, 0, 0, 0, 0, 0, 0, 1, 0, 0, 0, 0, 0, 0, 0, 0, 0, 0, 0
      |0, 0, 0, 0, 0, 0, 0, 0, 0, 0, 0, 0, 0, 0, 1, 0, 0, 0, 0, 0, 0, 0, 0, 1, 0, 0
      |0, 0, 0, 0, 0, 1, 0, 0, 0, 0, 0, 0, 0, 0, 0, 0, 0, 0, 0, 0, 1, 0, 0, 0, 0, 0
      |0, 1, 1, 0, 0, 0, 0, 0, 0, 0, 0, 0, 0, 0, 0, 0, 0, 0, 1, 1, 0, 0, 0, 0, 0, 0
      |0, 0, 0, 0, 1, 0, 0, 0, 0, 0, 0, 0, 0, 0, 0, 0, 0, 0, 0, 0, 0, 0, 0, 1, 0, 0
      |1, 0, 0, 0, 0, 0, 0, 0, 0, 0, 0, 1, 0, 0, 0, 0, 0, 1, 1, 0, 0, 0, 1, 0, 0, 0
      |0, 0, 1, 0, 0, 0, 0, 0, 0, 0, 1, 0, 0, 0, 0, 1, 0, 0, 1, 0, 0, 0, 0, 0, 0, 0
      |0, 0, 0, 0, 0, 0, 0, 0, 0, 0, 0, 0, 0, 0, 1, 0, 0, 0, 0, 0, 0, 0, 0, 0, 0, 0
      |0, 0, 0, 0, 0, 0, 0, 0, 0, 0, 0, 0, 0, 0, 0, 0, 0, 0, 0, 0, 0, 0, 0, 1, 0, 0
      |0, 0, 1, 0, 0, 1, 1, 0, 0, 0, 0, 0, 1, 0, 0, 0, 0, 0, 1, 0, 0, 0, 0, 0, 1, 0
      |0, 0, 0, 0, 0, 0, 0, 0, 0, 0, 0, 1, 0, 0, 0, 0, 0, 0, 0, 0, 0, 0, 0, 0, 0, 0
      |0, 0, 1, 0, 0, 0, 0, 0, 0, 0, 0, 0, 0, 0, 0, 0, 0, 0, 0, 0, 0, 0, 0, 0, 0, 0
      |0, 0, 0, 0, 0, 0, 0, 0, 0, 0, 1, 0, 0, 0, 0, 0, 0, 0, 0, 0, 0, 0, 0, 0, 0, 0
      |0, 0, 0, 0, 0, 0, 0, 0, 1, 0, 1, 1, 0, 0, 1, 0, 0, 0, 0, 0, 0, 0, 0, 1, 0, 0
      |0, 1, 0, 0, 0, 0, 0, 0, 1, 0, 0, 0, 0, 0, 0, 0, 0, 0, 0, 0, 0, 0, 0, 0, 0, 1
      |1, 0, 0, 0, 0, 0, 0, 1, 0, 0, 0, 0, 0, 0, 0, 0, 0, 0, 0, 0, 0, 0, 0, 0, 0, 0
      |0, 0, 0, 0, 0, 0, 0, 0, 0, 0, 0, 0, 0, 0, 0, 0, 0, 0, 0, 0, 0, 0, 0, 0, 1, 0
      |0, 0, 0, 0, 0, 0, 0, 0, 0, 0, 1, 0, 0, 0, 0, 0, 0, 0, 0, 0, 0, 0, 0, 0, 0, 0
      |0, 0, 0, 0, 0, 0, 1, 0, 0, 1, 0, 0, 0, 1, 0, 0, 0, 0, 1, 0, 0, 0, 0, 0, 0, 0
      |1, 0, 0, 0, 0, 0, 0, 0, 0, 0, 0, 0, 0, 0, 1, 0, 0, 0, 0, 0, 0, 1, 0, 0, 0, 0
      |0, 0, 0, 0, 0, 0, 0, 0, 0, 0, 0, 0, 0, 0, 0, 0, 0, 0, 0, 1, 0, 0, 0, 0, 0, 0
      |];

% Weights matrix (edge weights)
% Weights = [|0, 0, 0, 0, 0, 3, 0, 0, 0, 0, 3, 0, 0, 0, 0, 0, 0, 0, 0, 0, 1, 0, 0, 0, 2, 0
%           |0, 0, 0, 0, 0, 0, 0, 0, 2, 0, 0, 0, 0, 0, 0, 0, 0, 0, 0, 1, 0, 0, 0, 0, 0, 0
%           |0, 0, 0, 4, 0, 1, 0, 0, 2, 0, 0, 4, 0, 0, 4, 0, 3, 0, 0, 0, 0, 0, 0, 0, 0, 0
%           |0, 0, 4, 0, 0, 0, 0, 0, 0, 0, 0, 0, 0, 0, 0, 0, 0, 0, 0, 0, 0, 0, 0, 0, 0, 0
%           |0, 0, 0, 0, 0, 1, 0, 0, 0, 3, 0, 0, 0, 0, 0, 0, 0, 0, 0, 0, 0, 0, 0, 0, 0, 0
%           |3, 0, 1, 0, 1, 0, 0, 1, 0, 0, 0, 0, 0, 0, 3, 0, 0, 0, 0, 0, 0, 0, 0, 0, 0, 0
%           |0, 0, 0, 0, 0, 0, 0, 0, 0, 0, 0, 0, 0, 0, 3, 0, 0, 0, 0, 0, 0, 0, 0, 1, 0, 0
%           |0, 0, 0, 0, 0, 1, 0, 0, 0, 0, 0, 0, 0, 0, 0, 0, 0, 0, 0, 0, 3, 0, 0, 0, 0, 0
%           |0, 2, 2, 0, 0, 0, 0, 0, 0, 0, 0, 0, 0, 0, 0, 0, 0, 0, 1, 4, 0, 0, 0, 0, 0, 0
%           |0, 0, 0, 0, 3, 0, 0, 0, 0, 0, 0, 0, 0, 0, 0, 0, 0, 0, 0, 0, 0, 0, 0, 4, 0, 0
%           |3, 0, 0, 0, 0, 0, 0, 0, 0, 0, 0, 4, 0, 0, 0, 0, 0, 5, 1, 0, 0, 0, 2, 0, 0, 0
%           |0, 0, 4, 0, 0, 0, 0, 0, 0, 0, 4, 0, 0, 0, 0, 2, 0, 0, 5, 0, 0, 0, 0, 0, 0, 0
%           |0, 0, 0, 0, 0, 0, 0, 0, 0, 0, 0, 0, 0, 0, 1, 0, 0, 0, 0, 0, 0, 0, 0, 0, 0, 0
%           |0, 0, 0, 0, 0, 0, 0, 0, 0, 0, 0, 0, 0, 0, 0, 0, 0, 0, 0, 0, 0, 0, 0, 3, 0, 0
%           |0, 0, 4, 0, 0, 3, 3, 0, 0, 0, 0, 0, 1, 0, 0, 0, 0, 0, 1, 0, 0, 0, 0, 0, 1, 0
%           |0, 0, 0, 0, 0, 0, 0, 0, 0, 0, 0, 2, 0, 0, 0, 0, 0, 0, 0, 0, 0, 0, 0, 0, 0, 0
%           |0, 0, 3, 0, 0, 0, 0, 0, 0, 0, 0, 0, 0, 0, 0, 0, 0, 0, 0, 0, 0, 0, 0, 0, 0, 0
%           |0, 0, 0, 0, 0, 0, 0, 0, 0, 0, 5, 0, 0, 0, 0, 0, 0, 0, 0, 0, 0, 0, 0, 0, 0, 0
%           |0, 0, 0, 0, 0, 0, 0, 0, 1, 0, 1, 5, 0, 0, 1, 0, 0, 0, 0, 0, 0, 0, 0, 4, 0, 0
%           |0, 1, 0, 0, 0, 0, 0, 0, 4, 0, 0, 0, 0, 0, 0, 0, 0, 0, 0, 0, 0, 0, 0, 0, 0, 1
%           |1, 0, 0, 0, 0, 0, 0, 3, 0, 0, 0, 0, 0, 0, 0, 0, 0, 0, 0, 0, 0, 0, 0, 0, 0, 0
%           |0, 0, 0, 0, 0, 0, 0, 0, 0, 0, 0, 0, 0, 0, 0, 0, 0, 0, 0, 0, 0, 0, 0, 0, 2, 0
%           |0, 0, 0, 0, 0, 0, 0, 0, 0, 0, 2, 0, 0, 0, 0, 0, 0, 0, 0, 0, 0, 0, 0, 0, 0, 0
%           |0, 0, 0, 0, 0, 0, 1, 0, 0, 4, 0, 0, 0, 3, 0, 0, 0, 0, 4, 0, 0, 0, 0, 0, 0, 0
%           |2, 0, 0, 0, 0, 0, 0, 0, 0, 0, 0, 0, 0, 0, 1, 0, 0, 0, 0, 0, 0, 2, 0, 0, 0, 0
%           |0, 0, 0, 0, 0, 0, 0, 0, 0, 0, 0, 0, 0, 0, 0, 0, 0, 0, 0, 1, 0, 0, 0, 0, 0, 0
%           |];

% Distance matrix
Dist = [|0, 7, 4, 8, 4, 3, 6, 4, 5, 7, 3, 7, 4, 10, 3, 9, 7, 8, 4, 8, 1, 4, 5, 7, 2, 9
      |7, 0, 4, 8, 6, 5, 7, 6, 2, 9, 4, 8, 5, 10, 4, 10, 7, 9, 3, 1, 8, 7, 6, 7, 5, 2
      |4, 4, 0, 4, 2, 1, 7, 2, 2, 5, 4, 4, 5, 10, 4, 6, 3, 9, 3, 5, 5, 7, 6, 7, 5, 6
      |8, 8, 4, 0, 6, 5, 11, 6, 6, 9, 8, 8, 9, 14, 8, 10, 7, 13, 7, 9, 9, 11, 10, 11, 9, 10
      |4, 6, 2, 6, 0, 1, 7, 2, 4, 3, 6, 6, 5, 10, 4, 8, 5, 11, 5, 7, 5, 7, 8, 7, 5, 8
      |3, 5, 1, 5, 1, 0, 6, 1, 3, 4, 5, 5, 4, 10, 3, 7, 4, 10, 4, 6, 4, 6, 7, 7, 4, 7
      |6, 7, 7, 11, 7, 6, 0, 7, 5, 5, 5, 9, 4, 4, 3, 11, 10, 10, 4, 8, 7, 6, 7, 1, 4, 9
      |4, 6, 2, 6, 2, 1, 7, 0, 4, 5, 6, 6, 5, 11, 4, 8, 5, 11, 5, 7, 3, 7, 8, 8, 5, 8
      |5, 2, 2, 6, 4, 3, 5, 4, 0, 7, 2, 6, 3, 8, 2, 8, 5, 7, 1, 3, 6, 5, 4, 5, 3, 4
      |7, 9, 5, 9, 3, 4, 5, 5, 7, 0, 9, 9, 8, 7, 7, 11, 8, 14, 8, 10, 8, 10, 11, 4, 8, 11
      |3, 4, 4, 8, 6, 5, 5, 6, 2, 9, 0, 4, 3, 8, 2, 6, 7, 5, 1, 5, 4, 5, 2, 5, 3, 6
      |7, 8, 4, 8, 6, 5, 9, 6, 6, 9, 4, 0, 7, 12, 6, 2, 7, 9, 5, 9, 8, 9, 6, 9, 7, 10
      |4, 5, 5, 9, 5, 4, 4, 5, 3, 8, 3, 7, 0, 8, 1, 9, 8, 8, 2, 6, 5, 4, 5, 5, 2, 7
      |10, 10, 10, 14, 10, 10, 4, 11, 8, 7, 8, 12, 8, 0, 7, 14, 13, 13, 7, 11, 11, 10, 10, 3, 8, 12
      |3, 4, 4, 8, 4, 3, 3, 4, 2, 7, 2, 6, 1, 7, 0, 8, 7, 7, 1, 5, 4, 3, 4, 4, 1, 6
      |9, 10, 6, 10, 8, 7, 11, 8, 8, 11, 6, 2, 9, 14, 8, 0, 9, 11, 7, 11, 10, 11, 8, 11, 9, 12
      |7, 7, 3, 7, 5, 4, 10, 5, 5, 8, 7, 7, 8, 13, 7, 9, 0, 12, 6, 8, 8, 10, 9, 10, 8, 9
      |8, 9, 9, 13, 11, 10, 10, 11, 7, 14, 5, 9, 8, 13, 7, 11, 12, 0, 6, 10, 9, 10, 7, 10, 8, 11
      |4, 3, 3, 7, 5, 4, 4, 5, 1, 8, 1, 5, 2, 7, 1, 7, 6, 6, 0, 4, 5, 4, 3, 4, 2, 5
      |8, 1, 5, 9, 7, 6, 8, 7, 3, 10, 5, 9, 6, 11, 5, 11, 8, 10, 4, 0, 9, 8, 7, 8, 6, 1
      |1, 8, 5, 9, 5, 4, 7, 3, 6, 8, 4, 8, 5, 11, 4, 10, 8, 9, 5, 9, 0, 5, 6, 8, 3, 10
      |4, 7, 7, 11, 7, 6, 6, 7, 5, 10, 5, 9, 4, 10, 3, 11, 10, 10, 4, 8, 5, 0, 7, 7, 2, 9
      |5, 6, 6, 10, 8, 7, 7, 8, 4, 11, 2, 6, 5, 10, 4, 8, 9, 7, 3, 7, 6, 7, 0, 7, 5, 8
      |7, 7, 7, 11, 7, 7, 1, 8, 5, 4, 5, 9, 5, 3, 4, 11, 10, 10, 4, 8, 8, 7, 7, 0, 5, 9
      |2, 5, 5, 9, 5, 4, 4, 5, 3, 8, 3, 7, 2, 8, 1, 9, 8, 8, 2, 6, 3, 2, 5, 5, 0, 7
      |9, 2, 6, 10, 8, 7, 9, 8, 4, 11, 6, 10, 7, 12, 6, 12, 9, 11, 5, 1, 10, 9, 8, 9, 7, 0
      |];

% Initial object distribution
S_init = [0, 0, 0, 0, 1, 0, 0, 0, 0, 1, 1, 0, 0, 0, 1, 1, 0, 0, 0, 0, 0, 1, 0, 0, 0, 0];

% Target nodes (1 if target, 0 otherwise)
T = [0, 0, 1, 0, 1, 0, 0, 0, 0, 0, 0, 1, 0, 0, 0, 0, 0, 0, 0, 0, 0, 0, 0, 0, 1, 0];

% Initial truck position (1-based indexing)
u = 23;

% --- DEBUG TRACE ---
% --- GENERATION TRACE (Backwards from Target) ---
% Initial distribution (all on targets): [0, 0, 1, 0, 2, 0, 0, 0, 0, 0, 0, 2, 0, 0, 0, 0, 0, 0, 0, 0, 0, 0, 0, 0, 1, 0]
% Step 1: Selected target node 3 (has 1 objects)
% Step 1: Moved object 3 -> 15
% Step 1: Distribution: [0, 0, 0, 0, 2, 0, 0, 0, 0, 0, 0, 2, 0, 0, 1, 0, 0, 0, 0, 0, 0, 0, 0, 0, 1, 0]
% Step 2: Selected target node 12 (has 2 objects)
% Step 2: Moved object 12 -> 16
% Step 2: Distribution: [0, 0, 0, 0, 2, 0, 0, 0, 0, 0, 0, 1, 0, 0, 1, 1, 0, 0, 0, 0, 0, 0, 0, 0, 1, 0]
% Step 3: Selected target node 25 (has 1 objects)
% Step 3: Moved object 25 -> 22
% Step 3: Distribution: [0, 0, 0, 0, 2, 0, 0, 0, 0, 0, 0, 1, 0, 0, 1, 1, 0, 0, 0, 0, 0, 1, 0, 0, 0, 0]
% Step 4: Selected target node 12 (has 1 objects)
% Step 4: Moved object 12 -> 11
% Step 4: Distribution: [0, 0, 0, 0, 2, 0, 0, 0, 0, 0, 1, 0, 0, 0, 1, 1, 0, 0, 0, 0, 0, 1, 0, 0, 0, 0]
% Step 5: Selected target node 5 (has 2 objects)
% Step 5: Moved object 5 -> 10
% Step 5: Distribution: [0, 0, 0, 0, 1, 0, 0, 0, 0, 1, 1, 0, 0, 0, 1, 1, 0, 0, 0, 0, 0, 1, 0, 0, 0, 0]
% Truck starting position: 23
