% instance_n14_c2_k17_i34.dzn
% Generated instance for the Trucks problem
% N=14, h=3, k=17

% Number of nodes
N = 14;

% Number of objects
h = 3;

% Maximum plan length
%k = 17;

% Adjacency matrix (0-based internal, will be converted to 1-based)
Adj = [|0, 1, 1, 0, 0, 1, 0, 0, 0, 1, 0, 1, 1, 0
      |1, 0, 1, 0, 0, 0, 0, 0, 0, 0, 0, 0, 0, 0
      |1, 1, 0, 0, 0, 0, 0, 0, 0, 0, 0, 0, 0, 0
      |0, 0, 0, 0, 0, 1, 0, 0, 1, 0, 0, 1, 0, 0
      |0, 0, 0, 0, 0, 0, 0, 1, 0, 0, 0, 0, 0, 0
      |1, 0, 0, 1, 0, 0, 0, 0, 0, 0, 1, 0, 0, 0
      |0, 0, 0, 0, 0, 0, 0, 0, 0, 0, 0, 0, 1, 0
      |0, 0, 0, 0, 1, 0, 0, 0, 1, 1, 0, 0, 0, 0
      |0, 0, 0, 1, 0, 0, 0, 1, 0, 0, 1, 0, 1, 0
      |1, 0, 0, 0, 0, 0, 0, 1, 0, 0, 0, 0, 0, 0
      |0, 0, 0, 0, 0, 1, 0, 0, 1, 0, 0, 0, 0, 0
      |1, 0, 0, 1, 0, 0, 0, 0, 0, 0, 0, 0, 0, 1
      |1, 0, 0, 0, 0, 0, 1, 0, 1, 0, 0, 0, 0, 0
      |0, 0, 0, 0, 0, 0, 0, 0, 0, 0, 0, 1, 0, 0
      |];

% Weights matrix (edge weights)
% Weights = [|0, 2, 1, 0, 0, 5, 0, 0, 0, 4, 0, 2, 3, 0
%           |2, 0, 3, 0, 0, 0, 0, 0, 0, 0, 0, 0, 0, 0
%           |1, 3, 0, 0, 0, 0, 0, 0, 0, 0, 0, 0, 0, 0
%           |0, 0, 0, 0, 0, 1, 0, 0, 2, 0, 0, 4, 0, 0
%           |0, 0, 0, 0, 0, 0, 0, 5, 0, 0, 0, 0, 0, 0
%           |5, 0, 0, 1, 0, 0, 0, 0, 0, 0, 5, 0, 0, 0
%           |0, 0, 0, 0, 0, 0, 0, 0, 0, 0, 0, 0, 1, 0
%           |0, 0, 0, 0, 5, 0, 0, 0, 5, 1, 0, 0, 0, 0
%           |0, 0, 0, 2, 0, 0, 0, 5, 0, 0, 2, 0, 2, 0
%           |4, 0, 0, 0, 0, 0, 0, 1, 0, 0, 0, 0, 0, 0
%           |0, 0, 0, 0, 0, 5, 0, 0, 2, 0, 0, 0, 0, 0
%           |2, 0, 0, 4, 0, 0, 0, 0, 0, 0, 0, 0, 0, 1
%           |3, 0, 0, 0, 0, 0, 1, 0, 2, 0, 0, 0, 0, 0
%           |0, 0, 0, 0, 0, 0, 0, 0, 0, 0, 0, 1, 0, 0
%           |];

% Distance matrix
Dist = [|0, 2, 1, 6, 10, 5, 4, 5, 5, 4, 7, 2, 3, 3
      |2, 0, 3, 8, 12, 7, 6, 7, 7, 6, 9, 4, 5, 5
      |1, 3, 0, 7, 11, 6, 5, 6, 6, 5, 8, 3, 4, 4
      |6, 8, 7, 0, 12, 1, 5, 7, 2, 8, 4, 4, 4, 5
      |10, 12, 11, 12, 0, 13, 13, 5, 10, 6, 12, 12, 12, 13
      |5, 7, 6, 1, 13, 0, 6, 8, 3, 9, 5, 5, 5, 6
      |4, 6, 5, 5, 13, 6, 0, 8, 3, 8, 5, 6, 1, 7
      |5, 7, 6, 7, 5, 8, 8, 0, 5, 1, 7, 7, 7, 8
      |5, 7, 6, 2, 10, 3, 3, 5, 0, 6, 2, 6, 2, 7
      |4, 6, 5, 8, 6, 9, 8, 1, 6, 0, 8, 6, 7, 7
      |7, 9, 8, 4, 12, 5, 5, 7, 2, 8, 0, 8, 4, 9
      |2, 4, 3, 4, 12, 5, 6, 7, 6, 6, 8, 0, 5, 1
      |3, 5, 4, 4, 12, 5, 1, 7, 2, 7, 4, 5, 0, 6
      |3, 5, 4, 5, 13, 6, 7, 8, 7, 7, 9, 1, 6, 0
      |];

% Initial object distribution
S_init = [1, 0, 0, 2, 0, 0, 0, 0, 0, 0, 0, 0, 0, 0];

% Target nodes (1 if target, 0 otherwise)
T = [0, 0, 0, 0, 1, 0, 0, 0, 0, 1, 0, 0, 0, 1];

% Initial truck position (1-based indexing)
u = 2;

% --- DEBUG TRACE ---
% --- GENERATION TRACE (Backwards from Target) ---
% Initial distribution (all on targets): [0, 0, 0, 0, 1, 0, 0, 0, 0, 1, 0, 0, 0, 1]
% Step 1: Selected target node 10 (has 1 objects)
% Step 1: Moved object 10 -> 8
% Step 1: Distribution: [0, 0, 0, 0, 1, 0, 0, 1, 0, 0, 0, 0, 0, 1]
% Step 2: Selected target node 5 (has 1 objects)
% Step 2: Moved object 5 -> 8
% Step 2: Distribution: [0, 0, 0, 0, 0, 0, 0, 2, 0, 0, 0, 0, 0, 1]
% Step 3: Selected target node 14 (has 1 objects)
% Step 3: Moved object 14 -> 12
% Step 3: Distribution: [0, 0, 0, 0, 0, 0, 0, 2, 0, 0, 0, 1, 0, 0]
% Step 4: Selected non-target node 8 (has 2 objects)
% Step 4: Avoiding backtrack to node 5
% Step 4: Moved object 8 -> 9
% Step 4: Distribution: [0, 0, 0, 0, 0, 0, 0, 1, 1, 0, 0, 1, 0, 0]
% Step 5: Selected non-target node 9 (has 1 objects)
% Step 5: Avoiding backtrack to node 8
% Step 5: Moved object 9 -> 11
% Step 5: Distribution: [0, 0, 0, 0, 0, 0, 0, 1, 0, 0, 1, 1, 0, 0]
% Step 6: Selected non-target node 12 (has 1 objects)
% Step 6: Avoiding backtrack to node 14
% Step 6: Moved object 12 -> 1
% Step 6: Distribution: [1, 0, 0, 0, 0, 0, 0, 1, 0, 0, 1, 0, 0, 0]
% Step 7: Selected non-target node 1 (has 1 objects)
% Step 7: Avoiding backtrack to node 12
% Step 7: Moved object 1 -> 2
% Step 7: Distribution: [0, 1, 0, 0, 0, 0, 0, 1, 0, 0, 1, 0, 0, 0]
% Step 8: Selected non-target node 8 (has 1 objects)
% Step 8: Avoiding backtrack to node 5
% Step 8: Moved object 8 -> 9
% Step 8: Distribution: [0, 1, 0, 0, 0, 0, 0, 0, 1, 0, 1, 0, 0, 0]
% Step 9: Selected non-target node 11 (has 1 objects)
% Step 9: Avoiding backtrack to node 9
% Step 9: Moved object 11 -> 6
% Step 9: Distribution: [0, 1, 0, 0, 0, 1, 0, 0, 1, 0, 0, 0, 0, 0]
% Step 10: Selected non-target node 2 (has 1 objects)
% Step 10: Avoiding backtrack to node 1
% Step 10: Moved object 2 -> 3
% Step 10: Distribution: [0, 0, 1, 0, 0, 1, 0, 0, 1, 0, 0, 0, 0, 0]
% Step 11: Selected non-target node 9 (has 1 objects)
% Step 11: Avoiding backtrack to node 8
% Step 11: Moved object 9 -> 11
% Step 11: Distribution: [0, 0, 1, 0, 0, 1, 0, 0, 0, 0, 1, 0, 0, 0]
% Step 12: Selected non-target node 3 (has 1 objects)
% Step 12: Avoiding backtrack to node 2
% Step 12: Moved object 3 -> 1
% Step 12: Distribution: [1, 0, 0, 0, 0, 1, 0, 0, 0, 0, 1, 0, 0, 0]
% Step 13: Selected non-target node 11 (has 1 objects)
% Step 13: Avoiding backtrack to node 9
% Step 13: Moved object 11 -> 6
% Step 13: Distribution: [1, 0, 0, 0, 0, 2, 0, 0, 0, 0, 0, 0, 0, 0]
% Step 14: Selected non-target node 1 (has 1 objects)
% Step 14: Avoiding backtrack to node 3
% Step 14: Moved object 1 -> 12
% Step 14: Distribution: [0, 0, 0, 0, 0, 2, 0, 0, 0, 0, 0, 1, 0, 0]
% Step 15: Selected non-target node 6 (has 2 objects)
% Step 15: Avoiding backtrack to node 11
% Step 15: Moved object 6 -> 4
% Step 15: Distribution: [0, 0, 0, 1, 0, 1, 0, 0, 0, 0, 0, 1, 0, 0]
% Step 16: Selected non-target node 12 (has 1 objects)
% Step 16: Avoiding backtrack to node 1
% Step 16: Moved object 12 -> 4
% Step 16: Distribution: [0, 0, 0, 2, 0, 1, 0, 0, 0, 0, 0, 0, 0, 0]
% Step 17: Selected non-target node 6 (has 1 objects)
% Step 17: Avoiding backtrack to node 11
% Step 17: Moved object 6 -> 1
% Step 17: Distribution: [1, 0, 0, 2, 0, 0, 0, 0, 0, 0, 0, 0, 0, 0]
% Truck starting position: 2
