% instance_n26_c1_k14_i88.dzn
% Generated instance for the Trucks problem
% N=26, h=6, k=14

% Number of nodes
N = 26;

% Number of objects
h = 6;

% Maximum plan length
%k = 14;

% Adjacency matrix (0-based internal, will be converted to 1-based)
Adj = [|0, 0, 0, 0, 0, 0, 0, 0, 1, 0, 0, 0, 0, 0, 0, 0, 0, 0, 0, 0, 0, 0, 0, 0, 1, 0
      |0, 0, 0, 0, 0, 0, 0, 0, 0, 0, 0, 0, 0, 0, 1, 0, 0, 0, 1, 0, 0, 0, 0, 0, 0, 0
      |0, 0, 0, 0, 0, 0, 0, 0, 0, 0, 0, 0, 0, 0, 1, 0, 1, 0, 0, 0, 0, 0, 0, 0, 0, 1
      |0, 0, 0, 0, 0, 0, 0, 0, 0, 0, 0, 1, 1, 0, 0, 0, 0, 0, 0, 0, 0, 0, 1, 0, 0, 0
      |0, 0, 0, 0, 0, 0, 0, 0, 1, 0, 0, 0, 0, 0, 0, 0, 0, 1, 0, 0, 0, 0, 0, 0, 0, 0
      |0, 0, 0, 0, 0, 0, 0, 0, 0, 0, 0, 0, 0, 0, 0, 1, 0, 0, 0, 0, 0, 0, 1, 0, 0, 0
      |0, 0, 0, 0, 0, 0, 0, 0, 1, 0, 0, 1, 0, 0, 0, 0, 0, 0, 0, 0, 0, 0, 1, 0, 0, 0
      |0, 0, 0, 0, 0, 0, 0, 0, 0, 0, 0, 0, 0, 0, 0, 0, 0, 1, 0, 0, 0, 1, 0, 0, 0, 0
      |1, 0, 0, 0, 1, 0, 1, 0, 0, 1, 0, 0, 0, 0, 0, 0, 0, 0, 0, 0, 0, 0, 0, 0, 0, 1
      |0, 0, 0, 0, 0, 0, 0, 0, 1, 0, 0, 1, 0, 0, 0, 0, 0, 0, 0, 0, 0, 0, 0, 0, 0, 0
      |0, 0, 0, 0, 0, 0, 0, 0, 0, 0, 0, 0, 0, 0, 0, 1, 0, 1, 0, 0, 1, 0, 1, 0, 0, 1
      |0, 0, 0, 1, 0, 0, 1, 0, 0, 1, 0, 0, 1, 0, 0, 0, 0, 0, 1, 0, 0, 1, 0, 0, 0, 0
      |0, 0, 0, 1, 0, 0, 0, 0, 0, 0, 0, 1, 0, 0, 0, 0, 0, 0, 0, 0, 0, 0, 0, 0, 0, 0
      |0, 0, 0, 0, 0, 0, 0, 0, 0, 0, 0, 0, 0, 0, 1, 0, 0, 0, 0, 0, 0, 0, 0, 0, 0, 0
      |0, 1, 1, 0, 0, 0, 0, 0, 0, 0, 0, 0, 0, 1, 0, 0, 0, 0, 0, 0, 0, 0, 0, 0, 0, 0
      |0, 0, 0, 0, 0, 1, 0, 0, 0, 0, 1, 0, 0, 0, 0, 0, 0, 0, 0, 0, 0, 0, 0, 0, 0, 0
      |0, 0, 1, 0, 0, 0, 0, 0, 0, 0, 0, 0, 0, 0, 0, 0, 0, 1, 0, 0, 0, 0, 0, 0, 0, 0
      |0, 0, 0, 0, 1, 0, 0, 1, 0, 0, 1, 0, 0, 0, 0, 0, 1, 0, 0, 0, 0, 0, 0, 1, 0, 0
      |0, 1, 0, 0, 0, 0, 0, 0, 0, 0, 0, 1, 0, 0, 0, 0, 0, 0, 0, 0, 0, 0, 0, 0, 0, 0
      |0, 0, 0, 0, 0, 0, 0, 0, 0, 0, 0, 0, 0, 0, 0, 0, 0, 0, 0, 0, 0, 0, 1, 0, 0, 0
      |0, 0, 0, 0, 0, 0, 0, 0, 0, 0, 1, 0, 0, 0, 0, 0, 0, 0, 0, 0, 0, 0, 0, 0, 0, 0
      |0, 0, 0, 0, 0, 0, 0, 1, 0, 0, 0, 1, 0, 0, 0, 0, 0, 0, 0, 0, 0, 0, 0, 0, 0, 0
      |0, 0, 0, 1, 0, 1, 1, 0, 0, 0, 1, 0, 0, 0, 0, 0, 0, 0, 0, 1, 0, 0, 0, 0, 0, 0
      |0, 0, 0, 0, 0, 0, 0, 0, 0, 0, 0, 0, 0, 0, 0, 0, 0, 1, 0, 0, 0, 0, 0, 0, 0, 1
      |1, 0, 0, 0, 0, 0, 0, 0, 0, 0, 0, 0, 0, 0, 0, 0, 0, 0, 0, 0, 0, 0, 0, 0, 0, 0
      |0, 0, 1, 0, 0, 0, 0, 0, 1, 0, 1, 0, 0, 0, 0, 0, 0, 0, 0, 0, 0, 0, 0, 1, 0, 0
      |];

% Weights matrix (edge weights)
% Weights = [|0, 0, 0, 0, 0, 0, 0, 0, 3, 0, 0, 0, 0, 0, 0, 0, 0, 0, 0, 0, 0, 0, 0, 0, 1, 0
%           |0, 0, 0, 0, 0, 0, 0, 0, 0, 0, 0, 0, 0, 0, 5, 0, 0, 0, 4, 0, 0, 0, 0, 0, 0, 0
%           |0, 0, 0, 0, 0, 0, 0, 0, 0, 0, 0, 0, 0, 0, 1, 0, 3, 0, 0, 0, 0, 0, 0, 0, 0, 2
%           |0, 0, 0, 0, 0, 0, 0, 0, 0, 0, 0, 3, 4, 0, 0, 0, 0, 0, 0, 0, 0, 0, 3, 0, 0, 0
%           |0, 0, 0, 0, 0, 0, 0, 0, 2, 0, 0, 0, 0, 0, 0, 0, 0, 2, 0, 0, 0, 0, 0, 0, 0, 0
%           |0, 0, 0, 0, 0, 0, 0, 0, 0, 0, 0, 0, 0, 0, 0, 4, 0, 0, 0, 0, 0, 0, 4, 0, 0, 0
%           |0, 0, 0, 0, 0, 0, 0, 0, 1, 0, 0, 2, 0, 0, 0, 0, 0, 0, 0, 0, 0, 0, 2, 0, 0, 0
%           |0, 0, 0, 0, 0, 0, 0, 0, 0, 0, 0, 0, 0, 0, 0, 0, 0, 5, 0, 0, 0, 1, 0, 0, 0, 0
%           |3, 0, 0, 0, 2, 0, 1, 0, 0, 4, 0, 0, 0, 0, 0, 0, 0, 0, 0, 0, 0, 0, 0, 0, 0, 2
%           |0, 0, 0, 0, 0, 0, 0, 0, 4, 0, 0, 1, 0, 0, 0, 0, 0, 0, 0, 0, 0, 0, 0, 0, 0, 0
%           |0, 0, 0, 0, 0, 0, 0, 0, 0, 0, 0, 0, 0, 0, 0, 5, 0, 3, 0, 0, 4, 0, 5, 0, 0, 3
%           |0, 0, 0, 3, 0, 0, 2, 0, 0, 1, 0, 0, 5, 0, 0, 0, 0, 0, 4, 0, 0, 2, 0, 0, 0, 0
%           |0, 0, 0, 4, 0, 0, 0, 0, 0, 0, 0, 5, 0, 0, 0, 0, 0, 0, 0, 0, 0, 0, 0, 0, 0, 0
%           |0, 0, 0, 0, 0, 0, 0, 0, 0, 0, 0, 0, 0, 0, 2, 0, 0, 0, 0, 0, 0, 0, 0, 0, 0, 0
%           |0, 5, 1, 0, 0, 0, 0, 0, 0, 0, 0, 0, 0, 2, 0, 0, 0, 0, 0, 0, 0, 0, 0, 0, 0, 0
%           |0, 0, 0, 0, 0, 4, 0, 0, 0, 0, 5, 0, 0, 0, 0, 0, 0, 0, 0, 0, 0, 0, 0, 0, 0, 0
%           |0, 0, 3, 0, 0, 0, 0, 0, 0, 0, 0, 0, 0, 0, 0, 0, 0, 5, 0, 0, 0, 0, 0, 0, 0, 0
%           |0, 0, 0, 0, 2, 0, 0, 5, 0, 0, 3, 0, 0, 0, 0, 0, 5, 0, 0, 0, 0, 0, 0, 5, 0, 0
%           |0, 4, 0, 0, 0, 0, 0, 0, 0, 0, 0, 4, 0, 0, 0, 0, 0, 0, 0, 0, 0, 0, 0, 0, 0, 0
%           |0, 0, 0, 0, 0, 0, 0, 0, 0, 0, 0, 0, 0, 0, 0, 0, 0, 0, 0, 0, 0, 0, 1, 0, 0, 0
%           |0, 0, 0, 0, 0, 0, 0, 0, 0, 0, 4, 0, 0, 0, 0, 0, 0, 0, 0, 0, 0, 0, 0, 0, 0, 0
%           |0, 0, 0, 0, 0, 0, 0, 1, 0, 0, 0, 2, 0, 0, 0, 0, 0, 0, 0, 0, 0, 0, 0, 0, 0, 0
%           |0, 0, 0, 3, 0, 4, 2, 0, 0, 0, 5, 0, 0, 0, 0, 0, 0, 0, 0, 1, 0, 0, 0, 0, 0, 0
%           |0, 0, 0, 0, 0, 0, 0, 0, 0, 0, 0, 0, 0, 0, 0, 0, 0, 5, 0, 0, 0, 0, 0, 0, 0, 3
%           |1, 0, 0, 0, 0, 0, 0, 0, 0, 0, 0, 0, 0, 0, 0, 0, 0, 0, 0, 0, 0, 0, 0, 0, 0, 0
%           |0, 0, 2, 0, 0, 0, 0, 0, 2, 0, 3, 0, 0, 0, 0, 0, 0, 0, 0, 0, 0, 0, 0, 3, 0, 0
%           |];

% Distance matrix
Dist = [|0, 13, 7, 9, 5, 10, 4, 9, 3, 7, 8, 6, 11, 10, 8, 13, 10, 7, 10, 7, 12, 8, 6, 8, 1, 5
      |13, 0, 6, 11, 12, 16, 10, 11, 10, 9, 11, 8, 13, 7, 5, 16, 9, 14, 4, 13, 15, 10, 12, 11, 14, 8
      |7, 6, 0, 10, 6, 11, 5, 10, 4, 8, 5, 7, 12, 3, 1, 10, 3, 8, 10, 8, 9, 9, 7, 5, 8, 2
      |9, 11, 10, 0, 8, 7, 5, 6, 6, 4, 8, 3, 4, 13, 11, 11, 13, 10, 7, 4, 12, 5, 3, 11, 10, 8
      |5, 12, 6, 8, 0, 9, 3, 7, 2, 6, 5, 5, 10, 9, 7, 10, 7, 2, 9, 6, 9, 7, 5, 7, 6, 4
      |10, 16, 11, 7, 9, 0, 6, 11, 7, 9, 9, 8, 11, 14, 12, 4, 14, 11, 12, 5, 13, 10, 4, 12, 11, 9
      |4, 10, 5, 5, 3, 6, 0, 5, 1, 3, 6, 2, 7, 8, 6, 10, 8, 5, 6, 3, 10, 4, 2, 6, 5, 3
      |9, 11, 10, 6, 7, 11, 5, 0, 6, 4, 8, 3, 8, 13, 11, 13, 10, 5, 7, 8, 12, 1, 7, 10, 10, 8
      |3, 10, 4, 6, 2, 7, 1, 6, 0, 4, 5, 3, 8, 7, 5, 10, 7, 4, 7, 4, 9, 5, 3, 5, 4, 2
      |7, 9, 8, 4, 6, 9, 3, 4, 4, 0, 9, 1, 6, 11, 9, 13, 11, 8, 5, 6, 13, 3, 5, 9, 8, 6
      |8, 11, 5, 8, 5, 9, 6, 8, 5, 9, 0, 8, 12, 8, 6, 5, 8, 3, 12, 6, 4, 9, 5, 6, 9, 3
      |6, 8, 7, 3, 5, 8, 2, 3, 3, 1, 8, 0, 5, 10, 8, 12, 10, 7, 4, 5, 12, 2, 4, 8, 7, 5
      |11, 13, 12, 4, 10, 11, 7, 8, 8, 6, 12, 5, 0, 15, 13, 15, 15, 12, 9, 8, 16, 7, 7, 13, 12, 10
      |10, 7, 3, 13, 9, 14, 8, 13, 7, 11, 8, 10, 15, 0, 2, 13, 6, 11, 11, 11, 12, 12, 10, 8, 11, 5
      |8, 5, 1, 11, 7, 12, 6, 11, 5, 9, 6, 8, 13, 2, 0, 11, 4, 9, 9, 9, 10, 10, 8, 6, 9, 3
      |13, 16, 10, 11, 10, 4, 10, 13, 10, 13, 5, 12, 15, 13, 11, 0, 13, 8, 16, 9, 9, 14, 8, 11, 14, 8
      |10, 9, 3, 13, 7, 14, 8, 10, 7, 11, 8, 10, 15, 6, 4, 13, 0, 5, 13, 11, 12, 11, 10, 8, 11, 5
      |7, 14, 8, 10, 2, 11, 5, 5, 4, 8, 3, 7, 12, 11, 9, 8, 5, 0, 11, 8, 7, 6, 7, 5, 8, 6
      |10, 4, 10, 7, 9, 12, 6, 7, 7, 5, 12, 4, 9, 11, 9, 16, 13, 11, 0, 9, 16, 6, 8, 12, 11, 9
      |7, 13, 8, 4, 6, 5, 3, 8, 4, 6, 6, 5, 8, 11, 9, 9, 11, 8, 9, 0, 10, 7, 1, 9, 8, 6
      |12, 15, 9, 12, 9, 13, 10, 12, 9, 13, 4, 12, 16, 12, 10, 9, 12, 7, 16, 10, 0, 13, 9, 10, 13, 7
      |8, 10, 9, 5, 7, 10, 4, 1, 5, 3, 9, 2, 7, 12, 10, 14, 11, 6, 6, 7, 13, 0, 6, 10, 9, 7
      |6, 12, 7, 3, 5, 4, 2, 7, 3, 5, 5, 4, 7, 10, 8, 8, 10, 7, 8, 1, 9, 6, 0, 8, 7, 5
      |8, 11, 5, 11, 7, 12, 6, 10, 5, 9, 6, 8, 13, 8, 6, 11, 8, 5, 12, 9, 10, 10, 8, 0, 9, 3
      |1, 14, 8, 10, 6, 11, 5, 10, 4, 8, 9, 7, 12, 11, 9, 14, 11, 8, 11, 8, 13, 9, 7, 9, 0, 6
      |5, 8, 2, 8, 4, 9, 3, 8, 2, 6, 3, 5, 10, 5, 3, 8, 5, 6, 9, 6, 7, 7, 5, 3, 6, 0
      |];

% Initial object distribution
S_init = [0, 0, 0, 0, 0, 0, 0, 1, 1, 0, 0, 1, 0, 0, 0, 1, 0, 1, 1, 0, 0, 0, 0, 0, 0, 0];

% Target nodes (1 if target, 0 otherwise)
T = [0, 0, 0, 1, 1, 0, 1, 0, 0, 0, 0, 0, 0, 0, 1, 0, 0, 0, 0, 0, 0, 0, 0, 1, 0, 0];

% Initial truck position (1-based indexing)
u = 23;

% --- DEBUG TRACE ---
% --- GENERATION TRACE (Backwards from Target) ---
% Initial distribution (all on targets): [0, 0, 0, 1, 1, 0, 2, 0, 0, 0, 0, 0, 0, 0, 1, 0, 0, 0, 0, 0, 0, 0, 0, 1, 0, 0]
% Step 1: Selected target node 4 (has 1 objects)
% Step 1: Moved object 4 -> 12
% Step 1: Distribution: [0, 0, 0, 0, 1, 0, 2, 0, 0, 0, 0, 1, 0, 0, 1, 0, 0, 0, 0, 0, 0, 0, 0, 1, 0, 0]
% Step 2: Selected target node 7 (has 2 objects)
% Step 2: Moved object 7 -> 12
% Step 2: Distribution: [0, 0, 0, 0, 1, 0, 1, 0, 0, 0, 0, 2, 0, 0, 1, 0, 0, 0, 0, 0, 0, 0, 0, 1, 0, 0]
% Step 3: Selected target node 5 (has 1 objects)
% Step 3: Moved object 5 -> 18
% Step 3: Distribution: [0, 0, 0, 0, 0, 0, 1, 0, 0, 0, 0, 2, 0, 0, 1, 0, 0, 1, 0, 0, 0, 0, 0, 1, 0, 0]
% Step 4: Selected target node 7 (has 1 objects)
% Step 4: Moved object 7 -> 12
% Step 4: Distribution: [0, 0, 0, 0, 0, 0, 0, 0, 0, 0, 0, 3, 0, 0, 1, 0, 0, 1, 0, 0, 0, 0, 0, 1, 0, 0]
% Step 5: Selected target node 15 (has 1 objects)
% Step 5: Moved object 15 -> 3
% Step 5: Distribution: [0, 0, 1, 0, 0, 0, 0, 0, 0, 0, 0, 3, 0, 0, 0, 0, 0, 1, 0, 0, 0, 0, 0, 1, 0, 0]
% Step 6: Selected target node 24 (has 1 objects)
% Step 6: Moved object 24 -> 18
% Step 6: Distribution: [0, 0, 1, 0, 0, 0, 0, 0, 0, 0, 0, 3, 0, 0, 0, 0, 0, 2, 0, 0, 0, 0, 0, 0, 0, 0]
% Step 7: Selected non-target node 12 (has 3 objects)
% Step 7: Avoiding backtrack to node 7
% Step 7: Moved object 12 -> 19
% Step 7: Distribution: [0, 0, 1, 0, 0, 0, 0, 0, 0, 0, 0, 2, 0, 0, 0, 0, 0, 2, 1, 0, 0, 0, 0, 0, 0, 0]
% Step 8: Selected non-target node 3 (has 1 objects)
% Step 8: Avoiding backtrack to node 15
% Step 8: Moved object 3 -> 17
% Step 8: Distribution: [0, 0, 0, 0, 0, 0, 0, 0, 0, 0, 0, 2, 0, 0, 0, 0, 1, 2, 1, 0, 0, 0, 0, 0, 0, 0]
% Step 9: Selected non-target node 17 (has 1 objects)
% Step 9: Avoiding backtrack to node 3
% Step 9: Moved object 17 -> 18
% Step 9: Distribution: [0, 0, 0, 0, 0, 0, 0, 0, 0, 0, 0, 2, 0, 0, 0, 0, 0, 3, 1, 0, 0, 0, 0, 0, 0, 0]
% Step 10: Selected non-target node 18 (has 3 objects)
% Step 10: Avoiding backtrack to node 17
% Step 10: Moved object 18 -> 11
% Step 10: Distribution: [0, 0, 0, 0, 0, 0, 0, 0, 0, 0, 1, 2, 0, 0, 0, 0, 0, 2, 1, 0, 0, 0, 0, 0, 0, 0]
% Step 11: Selected non-target node 18 (has 2 objects)
% Step 11: Avoiding backtrack to node 17
% Step 11: Moved object 18 -> 8
% Step 11: Distribution: [0, 0, 0, 0, 0, 0, 0, 1, 0, 0, 1, 2, 0, 0, 0, 0, 0, 1, 1, 0, 0, 0, 0, 0, 0, 0]
% Step 12: Selected non-target node 12 (has 2 objects)
% Step 12: Avoiding backtrack to node 7
% Step 12: Moved object 12 -> 10
% Step 12: Distribution: [0, 0, 0, 0, 0, 0, 0, 1, 0, 1, 1, 1, 0, 0, 0, 0, 0, 1, 1, 0, 0, 0, 0, 0, 0, 0]
% Step 13: Selected non-target node 11 (has 1 objects)
% Step 13: Avoiding backtrack to node 18
% Step 13: Moved object 11 -> 16
% Step 13: Distribution: [0, 0, 0, 0, 0, 0, 0, 1, 0, 1, 0, 1, 0, 0, 0, 1, 0, 1, 1, 0, 0, 0, 0, 0, 0, 0]
% Step 14: Selected non-target node 10 (has 1 objects)
% Step 14: Avoiding backtrack to node 12
% Step 14: Moved object 10 -> 9
% Step 14: Distribution: [0, 0, 0, 0, 0, 0, 0, 1, 1, 0, 0, 1, 0, 0, 0, 1, 0, 1, 1, 0, 0, 0, 0, 0, 0, 0]
% Truck starting position: 23
