% instance_n10_c0_k5_i0.dzn
% Generated instance for the Trucks problem
% N=10, h=3, k=5

% Number of nodes
N = 10;

% Number of objects
h = 3;

% Maximum plan length
%k = 5;

% Adjacency matrix (0-based internal, will be converted to 1-based)
Adj = [|0, 0, 1, 0, 0, 0, 1, 0, 0, 0
      |0, 0, 1, 0, 0, 0, 0, 1, 0, 0
      |1, 1, 0, 0, 1, 0, 0, 0, 1, 1
      |0, 0, 0, 0, 1, 0, 1, 0, 0, 0
      |0, 0, 1, 1, 0, 0, 0, 1, 0, 0
      |0, 0, 0, 0, 0, 0, 0, 0, 0, 1
      |1, 0, 0, 1, 0, 0, 0, 0, 0, 1
      |0, 1, 0, 0, 1, 0, 0, 0, 0, 0
      |0, 0, 1, 0, 0, 0, 0, 0, 0, 0
      |0, 0, 1, 0, 0, 1, 1, 0, 0, 0
      |];

% Weights matrix (edge weights)
% Weights = [|0, 0, 4, 0, 0, 0, 5, 0, 0, 0
%           |0, 0, 2, 0, 0, 0, 0, 2, 0, 0
%           |4, 2, 0, 0, 3, 0, 0, 0, 5, 1
%           |0, 0, 0, 0, 4, 0, 2, 0, 0, 0
%           |0, 0, 3, 4, 0, 0, 0, 4, 0, 0
%           |0, 0, 0, 0, 0, 0, 0, 0, 0, 1
%           |5, 0, 0, 2, 0, 0, 0, 0, 0, 3
%           |0, 2, 0, 0, 4, 0, 0, 0, 0, 0
%           |0, 0, 5, 0, 0, 0, 0, 0, 0, 0
%           |0, 0, 1, 0, 0, 1, 3, 0, 0, 0
%           |];

% Distance matrix
Dist = [|0, 6, 4, 7, 7, 6, 5, 8, 9, 5
      |6, 0, 2, 8, 5, 4, 6, 2, 7, 3
      |4, 2, 0, 6, 3, 2, 4, 4, 5, 1
      |7, 8, 6, 0, 4, 6, 2, 8, 11, 5
      |7, 5, 3, 4, 0, 5, 6, 4, 8, 4
      |6, 4, 2, 6, 5, 0, 4, 6, 7, 1
      |5, 6, 4, 2, 6, 4, 0, 8, 9, 3
      |8, 2, 4, 8, 4, 6, 8, 0, 9, 5
      |9, 7, 5, 11, 8, 7, 9, 9, 0, 6
      |5, 3, 1, 5, 4, 1, 3, 5, 6, 0
      |];

% Initial object distribution
S_init = [0, 1, 1, 0, 1, 0, 0, 0, 0, 0];

% Target nodes (1 if target, 0 otherwise)
T = [1, 0, 0, 0, 0, 0, 1, 0, 1, 0];

% Initial truck position (1-based indexing)
u = 8;

% --- DEBUG TRACE ---
% --- GENERATION TRACE (Backwards from Target) ---
% Initial distribution (all on targets): [1, 0, 0, 0, 0, 0, 1, 0, 1, 0]
% Step 1: Selected target node 1 (has 1 objects)
% Step 1: Moved object 1 -> 3
% Step 1: Distribution: [0, 0, 1, 0, 0, 0, 1, 0, 1, 0]
% Step 2: Selected target node 9 (has 1 objects)
% Step 2: Moved object 9 -> 3
% Step 2: Distribution: [0, 0, 2, 0, 0, 0, 1, 0, 0, 0]
% Step 3: Selected target node 7 (has 1 objects)
% Step 3: Moved object 7 -> 4
% Step 3: Distribution: [0, 0, 2, 1, 0, 0, 0, 0, 0, 0]
% Step 4: Selected non-target node 3 (has 2 objects)
% Step 4: Avoiding backtrack to node 9
% Step 4: Moved object 3 -> 2
% Step 4: Distribution: [0, 1, 1, 1, 0, 0, 0, 0, 0, 0]
% Step 5: Selected non-target node 4 (has 1 objects)
% Step 5: Avoiding backtrack to node 7
% Step 5: Moved object 4 -> 5
% Step 5: Distribution: [0, 1, 1, 0, 1, 0, 0, 0, 0, 0]
% Truck starting position: 8
