% instance_n22_c0_k5_i60.dzn
% Generated instance for the Trucks problem
% N=22, h=5, k=5

% Number of nodes
N = 22;

% Number of objects
h = 5;

% Maximum plan length
%k = 5;

% Adjacency matrix (0-based internal, will be converted to 1-based)
Adj = [|0, 0, 0, 1, 0, 0, 0, 1, 0, 0, 0, 0, 1, 0, 0, 0, 0, 0, 0, 0, 1, 1
      |0, 0, 1, 0, 0, 0, 0, 0, 0, 0, 0, 0, 0, 1, 0, 0, 0, 0, 0, 1, 0, 0
      |0, 1, 0, 0, 0, 0, 0, 0, 0, 0, 1, 0, 0, 0, 0, 0, 0, 0, 0, 0, 0, 0
      |1, 0, 0, 0, 0, 0, 0, 0, 0, 0, 0, 0, 0, 0, 1, 0, 1, 0, 1, 0, 0, 0
      |0, 0, 0, 0, 0, 0, 0, 0, 0, 0, 0, 0, 1, 0, 0, 0, 0, 0, 0, 0, 0, 0
      |0, 0, 0, 0, 0, 0, 0, 0, 0, 0, 0, 0, 1, 0, 0, 0, 0, 0, 0, 0, 0, 0
      |0, 0, 0, 0, 0, 0, 0, 1, 1, 0, 0, 0, 0, 0, 0, 0, 0, 0, 0, 0, 0, 0
      |1, 0, 0, 0, 0, 0, 1, 0, 0, 0, 1, 0, 0, 0, 0, 0, 0, 0, 0, 0, 0, 0
      |0, 0, 0, 0, 0, 0, 1, 0, 0, 0, 0, 0, 1, 0, 0, 0, 0, 0, 0, 0, 0, 0
      |0, 0, 0, 0, 0, 0, 0, 0, 0, 0, 0, 0, 0, 0, 0, 0, 0, 0, 1, 0, 0, 0
      |0, 0, 1, 0, 0, 0, 0, 1, 0, 0, 0, 0, 1, 0, 0, 1, 0, 0, 0, 0, 0, 0
      |0, 0, 0, 0, 0, 0, 0, 0, 0, 0, 0, 0, 0, 0, 0, 0, 0, 0, 0, 0, 0, 1
      |1, 0, 0, 0, 1, 1, 0, 0, 1, 0, 1, 0, 0, 0, 0, 0, 0, 0, 0, 0, 0, 0
      |0, 1, 0, 0, 0, 0, 0, 0, 0, 0, 0, 0, 0, 0, 1, 0, 0, 1, 0, 0, 0, 0
      |0, 0, 0, 1, 0, 0, 0, 0, 0, 0, 0, 0, 0, 1, 0, 0, 0, 1, 0, 0, 0, 0
      |0, 0, 0, 0, 0, 0, 0, 0, 0, 0, 1, 0, 0, 0, 0, 0, 0, 0, 0, 0, 0, 0
      |0, 0, 0, 1, 0, 0, 0, 0, 0, 0, 0, 0, 0, 0, 0, 0, 0, 0, 0, 0, 0, 0
      |0, 0, 0, 0, 0, 0, 0, 0, 0, 0, 0, 0, 0, 1, 1, 0, 0, 0, 0, 1, 0, 1
      |0, 0, 0, 1, 0, 0, 0, 0, 0, 1, 0, 0, 0, 0, 0, 0, 0, 0, 0, 1, 0, 0
      |0, 1, 0, 0, 0, 0, 0, 0, 0, 0, 0, 0, 0, 0, 0, 0, 0, 1, 1, 0, 0, 0
      |1, 0, 0, 0, 0, 0, 0, 0, 0, 0, 0, 0, 0, 0, 0, 0, 0, 0, 0, 0, 0, 0
      |1, 0, 0, 0, 0, 0, 0, 0, 0, 0, 0, 1, 0, 0, 0, 0, 0, 1, 0, 0, 0, 0
      |];

% Weights matrix (edge weights)
% Weights = [|0, 0, 0, 2, 0, 0, 0, 5, 0, 0, 0, 0, 4, 0, 0, 0, 0, 0, 0, 0, 5, 2
%           |0, 0, 1, 0, 0, 0, 0, 0, 0, 0, 0, 0, 0, 2, 0, 0, 0, 0, 0, 4, 0, 0
%           |0, 1, 0, 0, 0, 0, 0, 0, 0, 0, 2, 0, 0, 0, 0, 0, 0, 0, 0, 0, 0, 0
%           |2, 0, 0, 0, 0, 0, 0, 0, 0, 0, 0, 0, 0, 0, 3, 0, 1, 0, 5, 0, 0, 0
%           |0, 0, 0, 0, 0, 0, 0, 0, 0, 0, 0, 0, 4, 0, 0, 0, 0, 0, 0, 0, 0, 0
%           |0, 0, 0, 0, 0, 0, 0, 0, 0, 0, 0, 0, 2, 0, 0, 0, 0, 0, 0, 0, 0, 0
%           |0, 0, 0, 0, 0, 0, 0, 3, 5, 0, 0, 0, 0, 0, 0, 0, 0, 0, 0, 0, 0, 0
%           |5, 0, 0, 0, 0, 0, 3, 0, 0, 0, 1, 0, 0, 0, 0, 0, 0, 0, 0, 0, 0, 0
%           |0, 0, 0, 0, 0, 0, 5, 0, 0, 0, 0, 0, 1, 0, 0, 0, 0, 0, 0, 0, 0, 0
%           |0, 0, 0, 0, 0, 0, 0, 0, 0, 0, 0, 0, 0, 0, 0, 0, 0, 0, 2, 0, 0, 0
%           |0, 0, 2, 0, 0, 0, 0, 1, 0, 0, 0, 0, 1, 0, 0, 1, 0, 0, 0, 0, 0, 0
%           |0, 0, 0, 0, 0, 0, 0, 0, 0, 0, 0, 0, 0, 0, 0, 0, 0, 0, 0, 0, 0, 2
%           |4, 0, 0, 0, 4, 2, 0, 0, 1, 0, 1, 0, 0, 0, 0, 0, 0, 0, 0, 0, 0, 0
%           |0, 2, 0, 0, 0, 0, 0, 0, 0, 0, 0, 0, 0, 0, 4, 0, 0, 4, 0, 0, 0, 0
%           |0, 0, 0, 3, 0, 0, 0, 0, 0, 0, 0, 0, 0, 4, 0, 0, 0, 3, 0, 0, 0, 0
%           |0, 0, 0, 0, 0, 0, 0, 0, 0, 0, 1, 0, 0, 0, 0, 0, 0, 0, 0, 0, 0, 0
%           |0, 0, 0, 1, 0, 0, 0, 0, 0, 0, 0, 0, 0, 0, 0, 0, 0, 0, 0, 0, 0, 0
%           |0, 0, 0, 0, 0, 0, 0, 0, 0, 0, 0, 0, 0, 4, 3, 0, 0, 0, 0, 3, 0, 3
%           |0, 0, 0, 5, 0, 0, 0, 0, 0, 2, 0, 0, 0, 0, 0, 0, 0, 0, 0, 2, 0, 0
%           |0, 4, 0, 0, 0, 0, 0, 0, 0, 0, 0, 0, 0, 0, 0, 0, 0, 3, 2, 0, 0, 0
%           |5, 0, 0, 0, 0, 0, 0, 0, 0, 0, 0, 0, 0, 0, 0, 0, 0, 0, 0, 0, 0, 0
%           |2, 0, 0, 0, 0, 0, 0, 0, 0, 0, 0, 2, 0, 0, 0, 0, 0, 3, 0, 0, 0, 0
%           |];

% Distance matrix
Dist = [|0, 8, 7, 2, 8, 6, 8, 5, 5, 9, 5, 4, 4, 9, 5, 6, 3, 5, 7, 8, 5, 2
      |8, 0, 1, 9, 8, 6, 7, 4, 5, 8, 3, 11, 4, 2, 6, 4, 10, 6, 6, 4, 13, 9
      |7, 1, 0, 9, 7, 5, 6, 3, 4, 9, 2, 11, 3, 3, 7, 3, 10, 7, 7, 5, 12, 9
      |2, 9, 9, 0, 10, 8, 10, 7, 7, 7, 7, 6, 6, 7, 3, 8, 1, 6, 5, 7, 7, 4
      |8, 8, 7, 10, 0, 6, 9, 6, 5, 16, 5, 12, 4, 10, 13, 6, 11, 13, 14, 12, 13, 10
      |6, 6, 5, 8, 6, 0, 7, 4, 3, 14, 3, 10, 2, 8, 11, 4, 9, 11, 12, 10, 11, 8
      |8, 7, 6, 10, 9, 7, 0, 3, 5, 15, 4, 12, 5, 9, 13, 5, 11, 13, 13, 11, 13, 10
      |5, 4, 3, 7, 6, 4, 3, 0, 3, 12, 1, 9, 2, 6, 10, 2, 8, 10, 10, 8, 10, 7
      |5, 5, 4, 7, 5, 3, 5, 3, 0, 13, 2, 9, 1, 7, 10, 3, 8, 10, 11, 9, 10, 7
      |9, 8, 9, 7, 16, 14, 15, 12, 13, 0, 11, 12, 12, 10, 10, 12, 8, 7, 2, 4, 14, 10
      |5, 3, 2, 7, 5, 3, 4, 1, 2, 11, 0, 9, 1, 5, 9, 1, 8, 9, 9, 7, 10, 7
      |4, 11, 11, 6, 12, 10, 12, 9, 9, 12, 9, 0, 8, 9, 8, 10, 7, 5, 10, 8, 9, 2
      |4, 4, 3, 6, 4, 2, 5, 2, 1, 12, 1, 8, 0, 6, 9, 2, 7, 9, 10, 8, 9, 6
      |9, 2, 3, 7, 10, 8, 9, 6, 7, 10, 5, 9, 6, 0, 4, 6, 8, 4, 8, 6, 14, 7
      |5, 6, 7, 3, 13, 11, 13, 10, 10, 10, 9, 8, 9, 4, 0, 10, 4, 3, 8, 6, 10, 6
      |6, 4, 3, 8, 6, 4, 5, 2, 3, 12, 1, 10, 2, 6, 10, 0, 9, 10, 10, 8, 11, 8
      |3, 10, 10, 1, 11, 9, 11, 8, 8, 8, 8, 7, 7, 8, 4, 9, 0, 7, 6, 8, 8, 5
      |5, 6, 7, 6, 13, 11, 13, 10, 10, 7, 9, 5, 9, 4, 3, 10, 7, 0, 5, 3, 10, 3
      |7, 6, 7, 5, 14, 12, 13, 10, 11, 2, 9, 10, 10, 8, 8, 10, 6, 5, 0, 2, 12, 8
      |8, 4, 5, 7, 12, 10, 11, 8, 9, 4, 7, 8, 8, 6, 6, 8, 8, 3, 2, 0, 13, 6
      |5, 13, 12, 7, 13, 11, 13, 10, 10, 14, 10, 9, 9, 14, 10, 11, 8, 10, 12, 13, 0, 7
      |2, 9, 9, 4, 10, 8, 10, 7, 7, 10, 7, 2, 6, 7, 6, 8, 5, 3, 8, 6, 7, 0
      |];

% Initial object distribution
S_init = [1, 0, 0, 0, 0, 0, 0, 0, 0, 0, 1, 1, 1, 0, 0, 0, 0, 0, 1, 0, 0, 0];

% Target nodes (1 if target, 0 otherwise)
T = [0, 0, 0, 0, 1, 0, 0, 1, 0, 0, 0, 0, 0, 0, 0, 0, 0, 0, 0, 1, 1, 1];

% Initial truck position (1-based indexing)
u = 3;

% --- DEBUG TRACE ---
% --- GENERATION TRACE (Backwards from Target) ---
% Initial distribution (all on targets): [0, 0, 0, 0, 1, 0, 0, 1, 0, 0, 0, 0, 0, 0, 0, 0, 0, 0, 0, 1, 1, 1]
% Step 1: Selected target node 22 (has 1 objects)
% Step 1: Moved object 22 -> 12
% Step 1: Distribution: [0, 0, 0, 0, 1, 0, 0, 1, 0, 0, 0, 1, 0, 0, 0, 0, 0, 0, 0, 1, 1, 0]
% Step 2: Selected target node 20 (has 1 objects)
% Step 2: Moved object 20 -> 19
% Step 2: Distribution: [0, 0, 0, 0, 1, 0, 0, 1, 0, 0, 0, 1, 0, 0, 0, 0, 0, 0, 1, 0, 1, 0]
% Step 3: Selected target node 5 (has 1 objects)
% Step 3: Moved object 5 -> 13
% Step 3: Distribution: [0, 0, 0, 0, 0, 0, 0, 1, 0, 0, 0, 1, 1, 0, 0, 0, 0, 0, 1, 0, 1, 0]
% Step 4: Selected target node 21 (has 1 objects)
% Step 4: Moved object 21 -> 1
% Step 4: Distribution: [1, 0, 0, 0, 0, 0, 0, 1, 0, 0, 0, 1, 1, 0, 0, 0, 0, 0, 1, 0, 0, 0]
% Step 5: Selected target node 8 (has 1 objects)
% Step 5: Moved object 8 -> 11
% Step 5: Distribution: [1, 0, 0, 0, 0, 0, 0, 0, 0, 0, 1, 1, 1, 0, 0, 0, 0, 0, 1, 0, 0, 0]
% Truck starting position: 3
