% instance_n22_c0_k11_i62.dzn
% Generated instance for the Trucks problem
% N=22, h=5, k=11

% Number of nodes
N = 22;

% Number of objects
h = 5;

% Maximum plan length
%k = 11;

% Adjacency matrix (0-based internal, will be converted to 1-based)
Adj = [|0, 0, 0, 0, 0, 1, 1, 0, 0, 0, 0, 0, 0, 1, 0, 0, 0, 0, 1, 0, 0, 1
      |0, 0, 0, 0, 0, 0, 0, 0, 0, 0, 0, 0, 0, 0, 0, 0, 0, 0, 0, 1, 0, 0
      |0, 0, 0, 0, 1, 0, 0, 0, 0, 0, 0, 0, 0, 0, 0, 0, 0, 0, 0, 1, 0, 0
      |0, 0, 0, 0, 0, 0, 0, 0, 0, 0, 0, 0, 0, 0, 0, 0, 1, 0, 0, 0, 0, 0
      |0, 0, 1, 0, 0, 0, 0, 0, 0, 0, 0, 1, 1, 0, 0, 0, 0, 0, 0, 0, 0, 0
      |1, 0, 0, 0, 0, 0, 0, 0, 0, 0, 0, 0, 0, 0, 0, 0, 0, 0, 0, 0, 0, 0
      |1, 0, 0, 0, 0, 0, 0, 1, 0, 1, 1, 0, 1, 0, 0, 0, 0, 0, 0, 0, 0, 0
      |0, 0, 0, 0, 0, 0, 1, 0, 0, 0, 0, 0, 0, 0, 1, 0, 0, 0, 0, 0, 0, 0
      |0, 0, 0, 0, 0, 0, 0, 0, 0, 0, 0, 0, 0, 0, 0, 0, 0, 1, 0, 0, 0, 0
      |0, 0, 0, 0, 0, 0, 1, 0, 0, 0, 0, 0, 0, 0, 1, 1, 0, 0, 1, 0, 0, 0
      |0, 0, 0, 0, 0, 0, 1, 0, 0, 0, 0, 0, 0, 0, 0, 0, 0, 1, 0, 0, 0, 0
      |0, 0, 0, 0, 1, 0, 0, 0, 0, 0, 0, 0, 0, 0, 0, 0, 0, 0, 0, 0, 0, 0
      |0, 0, 0, 0, 1, 0, 1, 0, 0, 0, 0, 0, 0, 1, 0, 0, 0, 0, 0, 0, 0, 0
      |1, 0, 0, 0, 0, 0, 0, 0, 0, 0, 0, 0, 1, 0, 0, 0, 0, 1, 0, 0, 1, 0
      |0, 0, 0, 0, 0, 0, 0, 1, 0, 1, 0, 0, 0, 0, 0, 0, 0, 0, 0, 1, 0, 0
      |0, 0, 0, 0, 0, 0, 0, 0, 0, 1, 0, 0, 0, 0, 0, 0, 0, 0, 1, 0, 0, 0
      |0, 0, 0, 1, 0, 0, 0, 0, 0, 0, 0, 0, 0, 0, 0, 0, 0, 0, 1, 0, 0, 0
      |0, 0, 0, 0, 0, 0, 0, 0, 1, 0, 1, 0, 0, 1, 0, 0, 0, 0, 0, 0, 0, 0
      |1, 0, 0, 0, 0, 0, 0, 0, 0, 1, 0, 0, 0, 0, 0, 1, 1, 0, 0, 0, 0, 0
      |0, 1, 1, 0, 0, 0, 0, 0, 0, 0, 0, 0, 0, 0, 1, 0, 0, 0, 0, 0, 0, 0
      |0, 0, 0, 0, 0, 0, 0, 0, 0, 0, 0, 0, 0, 1, 0, 0, 0, 0, 0, 0, 0, 0
      |1, 0, 0, 0, 0, 0, 0, 0, 0, 0, 0, 0, 0, 0, 0, 0, 0, 0, 0, 0, 0, 0
      |];

% Weights matrix (edge weights)
% Weights = [|0, 0, 0, 0, 0, 4, 3, 0, 0, 0, 0, 0, 0, 4, 0, 0, 0, 0, 1, 0, 0, 3
%           |0, 0, 0, 0, 0, 0, 0, 0, 0, 0, 0, 0, 0, 0, 0, 0, 0, 0, 0, 1, 0, 0
%           |0, 0, 0, 0, 5, 0, 0, 0, 0, 0, 0, 0, 0, 0, 0, 0, 0, 0, 0, 5, 0, 0
%           |0, 0, 0, 0, 0, 0, 0, 0, 0, 0, 0, 0, 0, 0, 0, 0, 2, 0, 0, 0, 0, 0
%           |0, 0, 5, 0, 0, 0, 0, 0, 0, 0, 0, 5, 3, 0, 0, 0, 0, 0, 0, 0, 0, 0
%           |4, 0, 0, 0, 0, 0, 0, 0, 0, 0, 0, 0, 0, 0, 0, 0, 0, 0, 0, 0, 0, 0
%           |3, 0, 0, 0, 0, 0, 0, 4, 0, 2, 4, 0, 4, 0, 0, 0, 0, 0, 0, 0, 0, 0
%           |0, 0, 0, 0, 0, 0, 4, 0, 0, 0, 0, 0, 0, 0, 1, 0, 0, 0, 0, 0, 0, 0
%           |0, 0, 0, 0, 0, 0, 0, 0, 0, 0, 0, 0, 0, 0, 0, 0, 0, 2, 0, 0, 0, 0
%           |0, 0, 0, 0, 0, 0, 2, 0, 0, 0, 0, 0, 0, 0, 1, 3, 0, 0, 3, 0, 0, 0
%           |0, 0, 0, 0, 0, 0, 4, 0, 0, 0, 0, 0, 0, 0, 0, 0, 0, 4, 0, 0, 0, 0
%           |0, 0, 0, 0, 5, 0, 0, 0, 0, 0, 0, 0, 0, 0, 0, 0, 0, 0, 0, 0, 0, 0
%           |0, 0, 0, 0, 3, 0, 4, 0, 0, 0, 0, 0, 0, 4, 0, 0, 0, 0, 0, 0, 0, 0
%           |4, 0, 0, 0, 0, 0, 0, 0, 0, 0, 0, 0, 4, 0, 0, 0, 0, 4, 0, 0, 2, 0
%           |0, 0, 0, 0, 0, 0, 0, 1, 0, 1, 0, 0, 0, 0, 0, 0, 0, 0, 0, 1, 0, 0
%           |0, 0, 0, 0, 0, 0, 0, 0, 0, 3, 0, 0, 0, 0, 0, 0, 0, 0, 3, 0, 0, 0
%           |0, 0, 0, 2, 0, 0, 0, 0, 0, 0, 0, 0, 0, 0, 0, 0, 0, 0, 5, 0, 0, 0
%           |0, 0, 0, 0, 0, 0, 0, 0, 2, 0, 4, 0, 0, 4, 0, 0, 0, 0, 0, 0, 0, 0
%           |1, 0, 0, 0, 0, 0, 0, 0, 0, 3, 0, 0, 0, 0, 0, 3, 5, 0, 0, 0, 0, 0
%           |0, 1, 5, 0, 0, 0, 0, 0, 0, 0, 0, 0, 0, 0, 1, 0, 0, 0, 0, 0, 0, 0
%           |0, 0, 0, 0, 0, 0, 0, 0, 0, 0, 0, 0, 0, 2, 0, 0, 0, 0, 0, 0, 0, 0
%           |3, 0, 0, 0, 0, 0, 0, 0, 0, 0, 0, 0, 0, 0, 0, 0, 0, 0, 0, 0, 0, 0
%           |];

% Distance matrix
Dist = [|0, 7, 11, 8, 10, 4, 3, 6, 10, 4, 7, 15, 7, 4, 5, 4, 6, 8, 1, 6, 6, 3
      |7, 0, 6, 13, 11, 11, 5, 3, 15, 3, 9, 16, 9, 11, 2, 6, 11, 13, 6, 1, 13, 10
      |11, 6, 0, 17, 5, 15, 9, 7, 18, 7, 13, 10, 8, 12, 6, 10, 15, 16, 10, 5, 14, 14
      |8, 13, 17, 0, 18, 12, 11, 12, 18, 10, 15, 23, 15, 12, 11, 10, 2, 16, 7, 12, 14, 11
      |10, 11, 5, 18, 0, 14, 7, 11, 13, 9, 11, 5, 3, 7, 10, 12, 16, 11, 11, 10, 9, 13
      |4, 11, 15, 12, 14, 0, 7, 10, 14, 8, 11, 19, 11, 8, 9, 8, 10, 12, 5, 10, 10, 7
      |3, 5, 9, 11, 7, 7, 0, 4, 10, 2, 4, 12, 4, 7, 3, 5, 9, 8, 4, 4, 9, 6
      |6, 3, 7, 12, 11, 10, 4, 0, 14, 2, 8, 16, 8, 10, 1, 5, 10, 12, 5, 2, 12, 9
      |10, 15, 18, 18, 13, 14, 10, 14, 0, 12, 6, 18, 10, 6, 13, 14, 16, 2, 11, 14, 8, 13
      |4, 3, 7, 10, 9, 8, 2, 2, 12, 0, 6, 14, 6, 8, 1, 3, 8, 10, 3, 2, 10, 7
      |7, 9, 13, 15, 11, 11, 4, 8, 6, 6, 0, 16, 8, 8, 7, 9, 13, 4, 8, 8, 10, 10
      |15, 16, 10, 23, 5, 19, 12, 16, 18, 14, 16, 0, 8, 12, 15, 17, 21, 16, 16, 15, 14, 18
      |7, 9, 8, 15, 3, 11, 4, 8, 10, 6, 8, 8, 0, 4, 7, 9, 13, 8, 8, 8, 6, 10
      |4, 11, 12, 12, 7, 8, 7, 10, 6, 8, 8, 12, 4, 0, 9, 8, 10, 4, 5, 10, 2, 7
      |5, 2, 6, 11, 10, 9, 3, 1, 13, 1, 7, 15, 7, 9, 0, 4, 9, 11, 4, 1, 11, 8
      |4, 6, 10, 10, 12, 8, 5, 5, 14, 3, 9, 17, 9, 8, 4, 0, 8, 12, 3, 5, 10, 7
      |6, 11, 15, 2, 16, 10, 9, 10, 16, 8, 13, 21, 13, 10, 9, 8, 0, 14, 5, 10, 12, 9
      |8, 13, 16, 16, 11, 12, 8, 12, 2, 10, 4, 16, 8, 4, 11, 12, 14, 0, 9, 12, 6, 11
      |1, 6, 10, 7, 11, 5, 4, 5, 11, 3, 8, 16, 8, 5, 4, 3, 5, 9, 0, 5, 7, 4
      |6, 1, 5, 12, 10, 10, 4, 2, 14, 2, 8, 15, 8, 10, 1, 5, 10, 12, 5, 0, 12, 9
      |6, 13, 14, 14, 9, 10, 9, 12, 8, 10, 10, 14, 6, 2, 11, 10, 12, 6, 7, 12, 0, 9
      |3, 10, 14, 11, 13, 7, 6, 9, 13, 7, 10, 18, 10, 7, 8, 7, 9, 11, 4, 9, 9, 0
      |];

% Initial object distribution
S_init = [0, 1, 0, 0, 0, 1, 0, 0, 0, 0, 0, 0, 1, 0, 0, 0, 0, 1, 0, 0, 0, 1];

% Target nodes (1 if target, 0 otherwise)
T = [1, 0, 0, 0, 0, 1, 0, 0, 0, 0, 0, 0, 0, 0, 1, 0, 0, 0, 0, 1, 0, 0];

% Initial truck position (1-based indexing)
u = 18;

% --- DEBUG TRACE ---
% --- GENERATION TRACE (Backwards from Target) ---
% Initial distribution (all on targets): [1, 0, 0, 0, 0, 1, 0, 0, 0, 0, 0, 0, 0, 0, 1, 0, 0, 0, 0, 2, 0, 0]
% Step 1: Selected target node 20 (has 2 objects)
% Step 1: Moved object 20 -> 2
% Step 1: Distribution: [1, 1, 0, 0, 0, 1, 0, 0, 0, 0, 0, 0, 0, 0, 1, 0, 0, 0, 0, 1, 0, 0]
% Step 2: Selected target node 15 (has 1 objects)
% Step 2: Moved object 15 -> 10
% Step 2: Distribution: [1, 1, 0, 0, 0, 1, 0, 0, 0, 1, 0, 0, 0, 0, 0, 0, 0, 0, 0, 1, 0, 0]
% Step 3: Selected target node 20 (has 1 objects)
% Step 3: Moved object 20 -> 3
% Step 3: Distribution: [1, 1, 1, 0, 0, 1, 0, 0, 0, 1, 0, 0, 0, 0, 0, 0, 0, 0, 0, 0, 0, 0]
% Step 4: Selected target node 6 (has 1 objects)
% Step 4: Selected target node 1 (has 1 objects)
% Step 4: Moved object 1 -> 22
% Step 4: Distribution: [0, 1, 1, 0, 0, 1, 0, 0, 0, 1, 0, 0, 0, 0, 0, 0, 0, 0, 0, 0, 0, 1]
% Step 5: Selected target node 6 (has 1 objects)
% Step 5: Selected non-target node 10 (has 1 objects)
% Step 5: Avoiding backtrack to node 15
% Step 5: Moved object 10 -> 7
% Step 5: Distribution: [0, 1, 1, 0, 0, 1, 1, 0, 0, 0, 0, 0, 0, 0, 0, 0, 0, 0, 0, 0, 0, 1]
% Step 6: Selected target node 6 (has 1 objects)
% Step 6: Selected non-target node 3 (has 1 objects)
% Step 6: Avoiding backtrack to node 20
% Step 6: Moved object 3 -> 5
% Step 6: Distribution: [0, 1, 0, 0, 1, 1, 1, 0, 0, 0, 0, 0, 0, 0, 0, 0, 0, 0, 0, 0, 0, 1]
% Step 7: Selected target node 6 (has 1 objects)
% Step 7: Selected non-target node 22 (has 1 objects)
% Step 7: Selected non-target node 7 (has 1 objects)
% Step 7: Avoiding backtrack to node 10
% Step 7: Moved object 7 -> 11
% Step 7: Distribution: [0, 1, 0, 0, 1, 1, 0, 0, 0, 0, 1, 0, 0, 0, 0, 0, 0, 0, 0, 0, 0, 1]
% Step 8: Selected target node 6 (has 1 objects)
% Step 8: Selected non-target node 5 (has 1 objects)
% Step 8: Avoiding backtrack to node 3
% Step 8: Moved object 5 -> 12
% Step 8: Distribution: [0, 1, 0, 0, 0, 1, 0, 0, 0, 0, 1, 1, 0, 0, 0, 0, 0, 0, 0, 0, 0, 1]
% Step 9: Selected target node 6 (has 1 objects)
% Step 9: Selected non-target node 22 (has 1 objects)
% Step 9: Selected non-target node 11 (has 1 objects)
% Step 9: Avoiding backtrack to node 7
% Step 9: Moved object 11 -> 18
% Step 9: Distribution: [0, 1, 0, 0, 0, 1, 0, 0, 0, 0, 0, 1, 0, 0, 0, 0, 0, 1, 0, 0, 0, 1]
% Step 10: Selected target node 6 (has 1 objects)
% Step 10: Selected non-target node 22 (has 1 objects)
% Step 10: Selected non-target node 12 (has 1 objects)
% Step 10: Moved object 12 -> 5
% Step 10: Distribution: [0, 1, 0, 0, 1, 1, 0, 0, 0, 0, 0, 0, 0, 0, 0, 0, 0, 1, 0, 0, 0, 1]
% Step 11: Selected target node 6 (has 1 objects)
% Step 11: Selected non-target node 22 (has 1 objects)
% Step 11: Selected non-target node 5 (has 1 objects)
% Step 11: Avoiding backtrack to node 12
% Step 11: Moved object 5 -> 13
% Step 11: Distribution: [0, 1, 0, 0, 0, 1, 0, 0, 0, 0, 0, 0, 1, 0, 0, 0, 0, 1, 0, 0, 0, 1]
% Truck starting position: 18
