% instance_n22_c1_k8_i66.dzn
% Generated instance for the Trucks problem
% N=22, h=5, k=8

% Number of nodes
N = 22;

% Number of objects
h = 5;

% Maximum plan length
%k = 8;

% Adjacency matrix (0-based internal, will be converted to 1-based)
Adj = [|0, 0, 0, 0, 1, 0, 0, 0, 0, 1, 0, 0, 0, 1, 0, 1, 1, 1, 0, 0, 0, 0
      |0, 0, 1, 1, 0, 0, 1, 0, 0, 1, 0, 0, 0, 0, 0, 0, 0, 0, 0, 0, 0, 0
      |0, 1, 0, 0, 0, 0, 0, 0, 0, 0, 1, 0, 1, 0, 0, 0, 0, 0, 0, 0, 0, 0
      |0, 1, 0, 0, 0, 1, 0, 0, 0, 0, 0, 0, 0, 0, 0, 0, 0, 0, 0, 0, 1, 0
      |1, 0, 0, 0, 0, 0, 0, 0, 1, 0, 0, 1, 0, 1, 0, 0, 0, 1, 0, 0, 0, 1
      |0, 0, 0, 1, 0, 0, 0, 0, 0, 0, 1, 0, 0, 1, 0, 0, 0, 0, 0, 0, 0, 0
      |0, 1, 0, 0, 0, 0, 0, 0, 0, 0, 0, 0, 0, 0, 1, 0, 0, 0, 0, 0, 0, 0
      |0, 0, 0, 0, 0, 0, 0, 0, 0, 0, 0, 0, 0, 0, 0, 0, 0, 0, 0, 0, 1, 0
      |0, 0, 0, 0, 1, 0, 0, 0, 0, 0, 0, 0, 1, 0, 1, 1, 0, 0, 1, 0, 0, 0
      |1, 1, 0, 0, 0, 0, 0, 0, 0, 0, 0, 0, 0, 0, 0, 0, 0, 0, 0, 0, 0, 0
      |0, 0, 1, 0, 0, 1, 0, 0, 0, 0, 0, 0, 0, 0, 0, 0, 0, 0, 0, 0, 0, 0
      |0, 0, 0, 0, 1, 0, 0, 0, 0, 0, 0, 0, 0, 0, 0, 0, 0, 0, 0, 0, 0, 0
      |0, 0, 1, 0, 0, 0, 0, 0, 1, 0, 0, 0, 0, 0, 0, 0, 0, 0, 0, 0, 0, 0
      |1, 0, 0, 0, 1, 1, 0, 0, 0, 0, 0, 0, 0, 0, 0, 0, 1, 0, 0, 0, 0, 0
      |0, 0, 0, 0, 0, 0, 1, 0, 1, 0, 0, 0, 0, 0, 0, 0, 0, 0, 0, 0, 0, 0
      |1, 0, 0, 0, 0, 0, 0, 0, 1, 0, 0, 0, 0, 0, 0, 0, 0, 0, 0, 0, 0, 0
      |1, 0, 0, 0, 0, 0, 0, 0, 0, 0, 0, 0, 0, 1, 0, 0, 0, 0, 0, 0, 0, 0
      |1, 0, 0, 0, 1, 0, 0, 0, 0, 0, 0, 0, 0, 0, 0, 0, 0, 0, 0, 0, 0, 0
      |0, 0, 0, 0, 0, 0, 0, 0, 1, 0, 0, 0, 0, 0, 0, 0, 0, 0, 0, 1, 0, 0
      |0, 0, 0, 0, 0, 0, 0, 0, 0, 0, 0, 0, 0, 0, 0, 0, 0, 0, 1, 0, 0, 0
      |0, 0, 0, 1, 0, 0, 0, 1, 0, 0, 0, 0, 0, 0, 0, 0, 0, 0, 0, 0, 0, 0
      |0, 0, 0, 0, 1, 0, 0, 0, 0, 0, 0, 0, 0, 0, 0, 0, 0, 0, 0, 0, 0, 0
      |];

% Weights matrix (edge weights)
% Weights = [|0, 0, 0, 0, 4, 0, 0, 0, 0, 5, 0, 0, 0, 3, 0, 4, 2, 3, 0, 0, 0, 0
%           |0, 0, 1, 3, 0, 0, 2, 0, 0, 3, 0, 0, 0, 0, 0, 0, 0, 0, 0, 0, 0, 0
%           |0, 1, 0, 0, 0, 0, 0, 0, 0, 0, 4, 0, 5, 0, 0, 0, 0, 0, 0, 0, 0, 0
%           |0, 3, 0, 0, 0, 1, 0, 0, 0, 0, 0, 0, 0, 0, 0, 0, 0, 0, 0, 0, 5, 0
%           |4, 0, 0, 0, 0, 0, 0, 0, 3, 0, 0, 3, 0, 3, 0, 0, 0, 5, 0, 0, 0, 5
%           |0, 0, 0, 1, 0, 0, 0, 0, 0, 0, 1, 0, 0, 2, 0, 0, 0, 0, 0, 0, 0, 0
%           |0, 2, 0, 0, 0, 0, 0, 0, 0, 0, 0, 0, 0, 0, 5, 0, 0, 0, 0, 0, 0, 0
%           |0, 0, 0, 0, 0, 0, 0, 0, 0, 0, 0, 0, 0, 0, 0, 0, 0, 0, 0, 0, 1, 0
%           |0, 0, 0, 0, 3, 0, 0, 0, 0, 0, 0, 0, 3, 0, 3, 2, 0, 0, 1, 0, 0, 0
%           |5, 3, 0, 0, 0, 0, 0, 0, 0, 0, 0, 0, 0, 0, 0, 0, 0, 0, 0, 0, 0, 0
%           |0, 0, 4, 0, 0, 1, 0, 0, 0, 0, 0, 0, 0, 0, 0, 0, 0, 0, 0, 0, 0, 0
%           |0, 0, 0, 0, 3, 0, 0, 0, 0, 0, 0, 0, 0, 0, 0, 0, 0, 0, 0, 0, 0, 0
%           |0, 0, 5, 0, 0, 0, 0, 0, 3, 0, 0, 0, 0, 0, 0, 0, 0, 0, 0, 0, 0, 0
%           |3, 0, 0, 0, 3, 2, 0, 0, 0, 0, 0, 0, 0, 0, 0, 0, 1, 0, 0, 0, 0, 0
%           |0, 0, 0, 0, 0, 0, 5, 0, 3, 0, 0, 0, 0, 0, 0, 0, 0, 0, 0, 0, 0, 0
%           |4, 0, 0, 0, 0, 0, 0, 0, 2, 0, 0, 0, 0, 0, 0, 0, 0, 0, 0, 0, 0, 0
%           |2, 0, 0, 0, 0, 0, 0, 0, 0, 0, 0, 0, 0, 1, 0, 0, 0, 0, 0, 0, 0, 0
%           |3, 0, 0, 0, 5, 0, 0, 0, 0, 0, 0, 0, 0, 0, 0, 0, 0, 0, 0, 0, 0, 0
%           |0, 0, 0, 0, 0, 0, 0, 0, 1, 0, 0, 0, 0, 0, 0, 0, 0, 0, 0, 5, 0, 0
%           |0, 0, 0, 0, 0, 0, 0, 0, 0, 0, 0, 0, 0, 0, 0, 0, 0, 0, 5, 0, 0, 0
%           |0, 0, 0, 5, 0, 0, 0, 1, 0, 0, 0, 0, 0, 0, 0, 0, 0, 0, 0, 0, 0, 0
%           |0, 0, 0, 0, 5, 0, 0, 0, 0, 0, 0, 0, 0, 0, 0, 0, 0, 0, 0, 0, 0, 0
%           |];

% Distance matrix
Dist = [|0, 8, 9, 6, 4, 5, 10, 12, 6, 5, 6, 7, 9, 3, 9, 4, 2, 3, 7, 12, 11, 9
      |8, 0, 1, 3, 9, 4, 2, 9, 9, 3, 5, 12, 6, 6, 7, 11, 7, 11, 10, 15, 8, 14
      |9, 1, 0, 4, 10, 5, 3, 10, 8, 4, 4, 13, 5, 7, 8, 10, 8, 12, 9, 14, 9, 15
      |6, 3, 4, 0, 6, 1, 5, 6, 9, 6, 2, 9, 9, 3, 10, 10, 4, 9, 10, 15, 5, 11
      |4, 9, 10, 6, 0, 5, 11, 12, 3, 9, 6, 3, 6, 3, 6, 5, 4, 5, 4, 9, 11, 5
      |5, 4, 5, 1, 5, 0, 6, 7, 8, 7, 1, 8, 10, 2, 11, 9, 3, 8, 9, 14, 6, 10
      |10, 2, 3, 5, 11, 6, 0, 11, 8, 5, 7, 14, 8, 8, 5, 10, 9, 13, 9, 14, 10, 16
      |12, 9, 10, 6, 12, 7, 11, 0, 15, 12, 8, 15, 15, 9, 16, 16, 10, 15, 16, 21, 1, 17
      |6, 9, 8, 9, 3, 8, 8, 15, 0, 11, 9, 6, 3, 6, 3, 2, 7, 8, 1, 6, 14, 8
      |5, 3, 4, 6, 9, 7, 5, 12, 11, 0, 8, 12, 9, 8, 10, 9, 7, 8, 12, 17, 11, 14
      |6, 5, 4, 2, 6, 1, 7, 8, 9, 8, 0, 9, 9, 3, 12, 10, 4, 9, 10, 15, 7, 11
      |7, 12, 13, 9, 3, 8, 14, 15, 6, 12, 9, 0, 9, 6, 9, 8, 7, 8, 7, 12, 14, 8
      |9, 6, 5, 9, 6, 10, 8, 15, 3, 9, 9, 9, 0, 9, 6, 5, 10, 11, 4, 9, 14, 11
      |3, 6, 7, 3, 3, 2, 8, 9, 6, 8, 3, 6, 9, 0, 9, 7, 1, 6, 7, 12, 8, 8
      |9, 7, 8, 10, 6, 11, 5, 16, 3, 10, 12, 9, 6, 9, 0, 5, 10, 11, 4, 9, 15, 11
      |4, 11, 10, 10, 5, 9, 10, 16, 2, 9, 10, 8, 5, 7, 5, 0, 6, 7, 3, 8, 15, 10
      |2, 7, 8, 4, 4, 3, 9, 10, 7, 7, 4, 7, 10, 1, 10, 6, 0, 5, 8, 13, 9, 9
      |3, 11, 12, 9, 5, 8, 13, 15, 8, 8, 9, 8, 11, 6, 11, 7, 5, 0, 9, 14, 14, 10
      |7, 10, 9, 10, 4, 9, 9, 16, 1, 12, 10, 7, 4, 7, 4, 3, 8, 9, 0, 5, 15, 9
      |12, 15, 14, 15, 9, 14, 14, 21, 6, 17, 15, 12, 9, 12, 9, 8, 13, 14, 5, 0, 20, 14
      |11, 8, 9, 5, 11, 6, 10, 1, 14, 11, 7, 14, 14, 8, 15, 15, 9, 14, 15, 20, 0, 16
      |9, 14, 15, 11, 5, 10, 16, 17, 8, 14, 11, 8, 11, 8, 11, 10, 9, 10, 9, 14, 16, 0
      |];

% Initial object distribution
S_init = [0, 1, 0, 0, 0, 0, 0, 0, 0, 3, 0, 0, 0, 0, 0, 0, 0, 0, 0, 0, 1, 0];

% Target nodes (1 if target, 0 otherwise)
T = [1, 0, 0, 0, 0, 0, 1, 1, 1, 0, 0, 0, 0, 0, 0, 0, 0, 0, 0, 0, 0, 0];

% Initial truck position (1-based indexing)
u = 19;

% --- DEBUG TRACE ---
% --- GENERATION TRACE (Backwards from Target) ---
% Initial distribution (all on targets): [2, 0, 0, 0, 0, 0, 1, 1, 1, 0, 0, 0, 0, 0, 0, 0, 0, 0, 0, 0, 0, 0]
% Step 1: Selected target node 7 (has 1 objects)
% Step 1: Moved object 7 -> 2
% Step 1: Distribution: [2, 1, 0, 0, 0, 0, 0, 1, 1, 0, 0, 0, 0, 0, 0, 0, 0, 0, 0, 0, 0, 0]
% Step 2: Selected target node 9 (has 1 objects)
% Step 2: Moved object 9 -> 13
% Step 2: Distribution: [2, 1, 0, 0, 0, 0, 0, 1, 0, 0, 0, 0, 1, 0, 0, 0, 0, 0, 0, 0, 0, 0]
% Step 3: Selected target node 1 (has 2 objects)
% Step 3: Moved object 1 -> 10
% Step 3: Distribution: [1, 1, 0, 0, 0, 0, 0, 1, 0, 1, 0, 0, 1, 0, 0, 0, 0, 0, 0, 0, 0, 0]
% Step 4: Selected target node 8 (has 1 objects)
% Step 4: Moved object 8 -> 21
% Step 4: Distribution: [1, 1, 0, 0, 0, 0, 0, 0, 0, 1, 0, 0, 1, 0, 0, 0, 0, 0, 0, 0, 1, 0]
% Step 5: Selected target node 1 (has 1 objects)
% Step 5: Moved object 1 -> 10
% Step 5: Distribution: [0, 1, 0, 0, 0, 0, 0, 0, 0, 2, 0, 0, 1, 0, 0, 0, 0, 0, 0, 0, 1, 0]
% Step 6: Selected non-target node 13 (has 1 objects)
% Step 6: Avoiding backtrack to node 9
% Step 6: Moved object 13 -> 3
% Step 6: Distribution: [0, 1, 1, 0, 0, 0, 0, 0, 0, 2, 0, 0, 0, 0, 0, 0, 0, 0, 0, 0, 1, 0]
% Step 7: Selected non-target node 2 (has 1 objects)
% Step 7: Avoiding backtrack to node 7
% Step 7: Moved object 2 -> 10
% Step 7: Distribution: [0, 0, 1, 0, 0, 0, 0, 0, 0, 3, 0, 0, 0, 0, 0, 0, 0, 0, 0, 0, 1, 0]
% Step 8: Selected non-target node 3 (has 1 objects)
% Step 8: Avoiding backtrack to node 13
% Step 8: Moved object 3 -> 2
% Step 8: Distribution: [0, 1, 0, 0, 0, 0, 0, 0, 0, 3, 0, 0, 0, 0, 0, 0, 0, 0, 0, 0, 1, 0]
% Truck starting position: 19
