% instance_n18_c2_k17_i54.dzn
% Generated instance for the Trucks problem
% N=18, h=4, k=17

% Number of nodes
N = 18;

% Number of objects
h = 4;

% Maximum plan length
%k = 17;

% Adjacency matrix (0-based internal, will be converted to 1-based)
Adj = [|0, 1, 0, 0, 1, 0, 1, 1, 0, 0, 1, 0, 0, 1, 0, 0, 0, 0
      |1, 0, 0, 0, 0, 0, 0, 0, 0, 0, 0, 0, 1, 0, 0, 0, 0, 0
      |0, 0, 0, 0, 0, 0, 0, 0, 0, 0, 0, 0, 0, 0, 1, 0, 0, 0
      |0, 0, 0, 0, 0, 0, 0, 0, 0, 0, 0, 0, 0, 1, 0, 0, 0, 0
      |1, 0, 0, 0, 0, 0, 0, 0, 1, 0, 0, 0, 0, 0, 0, 0, 0, 0
      |0, 0, 0, 0, 0, 0, 0, 1, 0, 0, 0, 0, 0, 0, 0, 1, 1, 0
      |1, 0, 0, 0, 0, 0, 0, 1, 0, 1, 1, 0, 0, 0, 0, 0, 0, 0
      |1, 0, 0, 0, 0, 1, 1, 0, 0, 0, 0, 0, 0, 0, 0, 0, 0, 0
      |0, 0, 0, 0, 1, 0, 0, 0, 0, 0, 0, 0, 0, 0, 0, 0, 0, 0
      |0, 0, 0, 0, 0, 0, 1, 0, 0, 0, 0, 0, 0, 0, 0, 0, 0, 0
      |1, 0, 0, 0, 0, 0, 1, 0, 0, 0, 0, 1, 1, 0, 1, 0, 0, 0
      |0, 0, 0, 0, 0, 0, 0, 0, 0, 0, 1, 0, 1, 0, 0, 0, 0, 0
      |0, 1, 0, 0, 0, 0, 0, 0, 0, 0, 1, 1, 0, 0, 0, 0, 0, 0
      |1, 0, 0, 1, 0, 0, 0, 0, 0, 0, 0, 0, 0, 0, 0, 0, 1, 0
      |0, 0, 1, 0, 0, 0, 0, 0, 0, 0, 1, 0, 0, 0, 0, 1, 0, 1
      |0, 0, 0, 0, 0, 1, 0, 0, 0, 0, 0, 0, 0, 0, 1, 0, 0, 0
      |0, 0, 0, 0, 0, 1, 0, 0, 0, 0, 0, 0, 0, 1, 0, 0, 0, 0
      |0, 0, 0, 0, 0, 0, 0, 0, 0, 0, 0, 0, 0, 0, 1, 0, 0, 0
      |];

% Weights matrix (edge weights)
% Weights = [|0, 5, 0, 0, 5, 0, 4, 5, 0, 0, 1, 0, 0, 4, 0, 0, 0, 0
%           |5, 0, 0, 0, 0, 0, 0, 0, 0, 0, 0, 0, 5, 0, 0, 0, 0, 0
%           |0, 0, 0, 0, 0, 0, 0, 0, 0, 0, 0, 0, 0, 0, 4, 0, 0, 0
%           |0, 0, 0, 0, 0, 0, 0, 0, 0, 0, 0, 0, 0, 3, 0, 0, 0, 0
%           |5, 0, 0, 0, 0, 0, 0, 0, 1, 0, 0, 0, 0, 0, 0, 0, 0, 0
%           |0, 0, 0, 0, 0, 0, 0, 1, 0, 0, 0, 0, 0, 0, 0, 3, 2, 0
%           |4, 0, 0, 0, 0, 0, 0, 3, 0, 5, 1, 0, 0, 0, 0, 0, 0, 0
%           |5, 0, 0, 0, 0, 1, 3, 0, 0, 0, 0, 0, 0, 0, 0, 0, 0, 0
%           |0, 0, 0, 0, 1, 0, 0, 0, 0, 0, 0, 0, 0, 0, 0, 0, 0, 0
%           |0, 0, 0, 0, 0, 0, 5, 0, 0, 0, 0, 0, 0, 0, 0, 0, 0, 0
%           |1, 0, 0, 0, 0, 0, 1, 0, 0, 0, 0, 1, 5, 0, 2, 0, 0, 0
%           |0, 0, 0, 0, 0, 0, 0, 0, 0, 0, 1, 0, 5, 0, 0, 0, 0, 0
%           |0, 5, 0, 0, 0, 0, 0, 0, 0, 0, 5, 5, 0, 0, 0, 0, 0, 0
%           |4, 0, 0, 3, 0, 0, 0, 0, 0, 0, 0, 0, 0, 0, 0, 0, 5, 0
%           |0, 0, 4, 0, 0, 0, 0, 0, 0, 0, 2, 0, 0, 0, 0, 4, 0, 2
%           |0, 0, 0, 0, 0, 3, 0, 0, 0, 0, 0, 0, 0, 0, 4, 0, 0, 0
%           |0, 0, 0, 0, 0, 2, 0, 0, 0, 0, 0, 0, 0, 5, 0, 0, 0, 0
%           |0, 0, 0, 0, 0, 0, 0, 0, 0, 0, 0, 0, 0, 0, 2, 0, 0, 0
%           |];

% Distance matrix
Dist = [|0, 5, 7, 7, 5, 6, 2, 5, 6, 7, 1, 2, 6, 4, 3, 7, 8, 5
      |5, 0, 12, 12, 10, 11, 7, 10, 11, 12, 6, 7, 5, 9, 8, 12, 13, 10
      |7, 12, 0, 14, 12, 11, 7, 10, 13, 12, 6, 7, 11, 11, 4, 8, 13, 6
      |7, 12, 14, 0, 12, 10, 9, 11, 13, 14, 8, 9, 13, 3, 10, 13, 8, 12
      |5, 10, 12, 12, 0, 11, 7, 10, 1, 12, 6, 7, 11, 9, 8, 12, 13, 10
      |6, 11, 11, 10, 11, 0, 4, 1, 12, 9, 5, 6, 10, 7, 7, 3, 2, 9
      |2, 7, 7, 9, 7, 4, 0, 3, 8, 5, 1, 2, 6, 6, 3, 7, 6, 5
      |5, 10, 10, 11, 10, 1, 3, 0, 11, 8, 4, 5, 9, 8, 6, 4, 3, 8
      |6, 11, 13, 13, 1, 12, 8, 11, 0, 13, 7, 8, 12, 10, 9, 13, 14, 11
      |7, 12, 12, 14, 12, 9, 5, 8, 13, 0, 6, 7, 11, 11, 8, 12, 11, 10
      |1, 6, 6, 8, 6, 5, 1, 4, 7, 6, 0, 1, 5, 5, 2, 6, 7, 4
      |2, 7, 7, 9, 7, 6, 2, 5, 8, 7, 1, 0, 5, 6, 3, 7, 8, 5
      |6, 5, 11, 13, 11, 10, 6, 9, 12, 11, 5, 5, 0, 10, 7, 11, 12, 9
      |4, 9, 11, 3, 9, 7, 6, 8, 10, 11, 5, 6, 10, 0, 7, 10, 5, 9
      |3, 8, 4, 10, 8, 7, 3, 6, 9, 8, 2, 3, 7, 7, 0, 4, 9, 2
      |7, 12, 8, 13, 12, 3, 7, 4, 13, 12, 6, 7, 11, 10, 4, 0, 5, 6
      |8, 13, 13, 8, 13, 2, 6, 3, 14, 11, 7, 8, 12, 5, 9, 5, 0, 11
      |5, 10, 6, 12, 10, 9, 5, 8, 11, 10, 4, 5, 9, 9, 2, 6, 11, 0
      |];

% Initial object distribution
S_init = [0, 0, 1, 0, 0, 0, 1, 0, 0, 0, 0, 1, 0, 0, 0, 0, 1, 0];

% Target nodes (1 if target, 0 otherwise)
T = [0, 1, 0, 0, 0, 0, 0, 1, 0, 0, 0, 0, 0, 0, 1, 1, 0, 0];

% Initial truck position (1-based indexing)
u = 6;

% --- DEBUG TRACE ---
% --- GENERATION TRACE (Backwards from Target) ---
% Initial distribution (all on targets): [0, 1, 0, 0, 0, 0, 0, 1, 0, 0, 0, 0, 0, 0, 1, 1, 0, 0]
% Step 1: Selected target node 16 (has 1 objects)
% Step 1: Moved object 16 -> 6
% Step 1: Distribution: [0, 1, 0, 0, 0, 1, 0, 1, 0, 0, 0, 0, 0, 0, 1, 0, 0, 0]
% Step 2: Selected target node 2 (has 1 objects)
% Step 2: Moved object 2 -> 1
% Step 2: Distribution: [1, 0, 0, 0, 0, 1, 0, 1, 0, 0, 0, 0, 0, 0, 1, 0, 0, 0]
% Step 3: Selected target node 15 (has 1 objects)
% Step 3: Moved object 15 -> 3
% Step 3: Distribution: [1, 0, 1, 0, 0, 1, 0, 1, 0, 0, 0, 0, 0, 0, 0, 0, 0, 0]
% Step 4: Selected target node 8 (has 1 objects)
% Step 4: Moved object 8 -> 1
% Step 4: Distribution: [2, 0, 1, 0, 0, 1, 0, 0, 0, 0, 0, 0, 0, 0, 0, 0, 0, 0]
% Step 5: Selected non-target node 1 (has 2 objects)
% Step 5: Avoiding backtrack to node 8
% Step 5: Moved object 1 -> 14
% Step 5: Distribution: [1, 0, 1, 0, 0, 1, 0, 0, 0, 0, 0, 0, 0, 1, 0, 0, 0, 0]
% Step 6: Selected non-target node 6 (has 1 objects)
% Step 6: Avoiding backtrack to node 16
% Step 6: Moved object 6 -> 17
% Step 6: Distribution: [1, 0, 1, 0, 0, 0, 0, 0, 0, 0, 0, 0, 0, 1, 0, 0, 1, 0]
% Step 7: Selected non-target node 1 (has 1 objects)
% Step 7: Avoiding backtrack to node 8
% Step 7: Moved object 1 -> 11
% Step 7: Distribution: [0, 0, 1, 0, 0, 0, 0, 0, 0, 0, 1, 0, 0, 1, 0, 0, 1, 0]
% Step 8: Selected non-target node 3 (has 1 objects)
% Step 8: Selected non-target node 17 (has 1 objects)
% Step 8: Avoiding backtrack to node 6
% Step 8: Moved object 17 -> 14
% Step 8: Distribution: [0, 0, 1, 0, 0, 0, 0, 0, 0, 0, 1, 0, 0, 2, 0, 0, 0, 0]
% Step 9: Selected non-target node 11 (has 1 objects)
% Step 9: Avoiding backtrack to node 1
% Step 9: Moved object 11 -> 13
% Step 9: Distribution: [0, 0, 1, 0, 0, 0, 0, 0, 0, 0, 0, 0, 1, 2, 0, 0, 0, 0]
% Step 10: Selected non-target node 14 (has 2 objects)
% Step 10: Avoiding backtrack to node 17
% Step 10: Moved object 14 -> 1
% Step 10: Distribution: [1, 0, 1, 0, 0, 0, 0, 0, 0, 0, 0, 0, 1, 1, 0, 0, 0, 0]
% Step 11: Selected non-target node 14 (has 1 objects)
% Step 11: Avoiding backtrack to node 17
% Step 11: Moved object 14 -> 4
% Step 11: Distribution: [1, 0, 1, 1, 0, 0, 0, 0, 0, 0, 0, 0, 1, 0, 0, 0, 0, 0]
% Step 12: Selected non-target node 1 (has 1 objects)
% Step 12: Avoiding backtrack to node 14
% Step 12: Moved object 1 -> 7
% Step 12: Distribution: [0, 0, 1, 1, 0, 0, 1, 0, 0, 0, 0, 0, 1, 0, 0, 0, 0, 0]
% Step 13: Selected non-target node 3 (has 1 objects)
% Step 13: Selected non-target node 13 (has 1 objects)
% Step 13: Avoiding backtrack to node 11
% Step 13: Moved object 13 -> 12
% Step 13: Distribution: [0, 0, 1, 1, 0, 0, 1, 0, 0, 0, 0, 1, 0, 0, 0, 0, 0, 0]
% Step 14: Selected non-target node 4 (has 1 objects)
% Step 14: Moved object 4 -> 14
% Step 14: Distribution: [0, 0, 1, 0, 0, 0, 1, 0, 0, 0, 0, 1, 0, 1, 0, 0, 0, 0]
% Step 15: Selected non-target node 3 (has 1 objects)
% Step 15: Selected non-target node 7 (has 1 objects)
% Step 15: Avoiding backtrack to node 1
% Step 15: Moved object 7 -> 10
% Step 15: Distribution: [0, 0, 1, 0, 0, 0, 0, 0, 0, 1, 0, 1, 0, 1, 0, 0, 0, 0]
% Step 16: Selected non-target node 10 (has 1 objects)
% Step 16: Moved object 10 -> 7
% Step 16: Distribution: [0, 0, 1, 0, 0, 0, 1, 0, 0, 0, 0, 1, 0, 1, 0, 0, 0, 0]
% Step 17: Selected non-target node 14 (has 1 objects)
% Step 17: Avoiding backtrack to node 4
% Step 17: Moved object 14 -> 17
% Step 17: Distribution: [0, 0, 1, 0, 0, 0, 1, 0, 0, 0, 0, 1, 0, 0, 0, 0, 1, 0]
% Truck starting position: 6
