% instance_n14_c3_k8_i36.dzn
% Generated instance for the Trucks problem
% N=14, h=3, k=8

% Number of nodes
N = 14;

% Number of objects
h = 3;

% Maximum plan length
%k = 8;

% Adjacency matrix (0-based internal, will be converted to 1-based)
Adj = [|0, 0, 1, 1, 0, 0, 1, 0, 0, 1, 1, 0, 0, 0
      |0, 0, 0, 0, 0, 0, 0, 0, 0, 0, 0, 0, 1, 0
      |1, 0, 0, 0, 0, 1, 0, 0, 0, 0, 0, 0, 0, 0
      |1, 0, 0, 0, 0, 0, 0, 0, 0, 1, 0, 0, 0, 0
      |0, 0, 0, 0, 0, 0, 0, 0, 0, 1, 0, 0, 0, 0
      |0, 0, 1, 0, 0, 0, 0, 0, 0, 0, 0, 0, 0, 0
      |1, 0, 0, 0, 0, 0, 0, 1, 1, 1, 0, 1, 0, 1
      |0, 0, 0, 0, 0, 0, 1, 0, 0, 0, 0, 0, 0, 0
      |0, 0, 0, 0, 0, 0, 1, 0, 0, 1, 0, 0, 1, 0
      |1, 0, 0, 1, 1, 0, 1, 0, 1, 0, 0, 0, 0, 0
      |1, 0, 0, 0, 0, 0, 0, 0, 0, 0, 0, 1, 0, 0
      |0, 0, 0, 0, 0, 0, 1, 0, 0, 0, 1, 0, 0, 0
      |0, 1, 0, 0, 0, 0, 0, 0, 1, 0, 0, 0, 0, 0
      |0, 0, 0, 0, 0, 0, 1, 0, 0, 0, 0, 0, 0, 0
      |];

% Weights matrix (edge weights)
% Weights = [|0, 0, 4, 3, 0, 0, 4, 0, 0, 5, 1, 0, 0, 0
%           |0, 0, 0, 0, 0, 0, 0, 0, 0, 0, 0, 0, 1, 0
%           |4, 0, 0, 0, 0, 3, 0, 0, 0, 0, 0, 0, 0, 0
%           |3, 0, 0, 0, 0, 0, 0, 0, 0, 2, 0, 0, 0, 0
%           |0, 0, 0, 0, 0, 0, 0, 0, 0, 3, 0, 0, 0, 0
%           |0, 0, 3, 0, 0, 0, 0, 0, 0, 0, 0, 0, 0, 0
%           |4, 0, 0, 0, 0, 0, 0, 4, 3, 3, 0, 4, 0, 1
%           |0, 0, 0, 0, 0, 0, 4, 0, 0, 0, 0, 0, 0, 0
%           |0, 0, 0, 0, 0, 0, 3, 0, 0, 2, 0, 0, 3, 0
%           |5, 0, 0, 2, 3, 0, 3, 0, 2, 0, 0, 0, 0, 0
%           |1, 0, 0, 0, 0, 0, 0, 0, 0, 0, 0, 5, 0, 0
%           |0, 0, 0, 0, 0, 0, 4, 0, 0, 0, 5, 0, 0, 0
%           |0, 1, 0, 0, 0, 0, 0, 0, 3, 0, 0, 0, 0, 0
%           |0, 0, 0, 0, 0, 0, 1, 0, 0, 0, 0, 0, 0, 0
%           |];

% Distance matrix
Dist = [|0, 11, 4, 3, 8, 7, 4, 8, 7, 5, 1, 6, 10, 5
      |11, 0, 15, 8, 9, 18, 7, 11, 4, 6, 12, 11, 1, 8
      |4, 15, 0, 7, 12, 3, 8, 12, 11, 9, 5, 10, 14, 9
      |3, 8, 7, 0, 5, 10, 5, 9, 4, 2, 4, 9, 7, 6
      |8, 9, 12, 5, 0, 15, 6, 10, 5, 3, 9, 10, 8, 7
      |7, 18, 3, 10, 15, 0, 11, 15, 14, 12, 8, 13, 17, 12
      |4, 7, 8, 5, 6, 11, 0, 4, 3, 3, 5, 4, 6, 1
      |8, 11, 12, 9, 10, 15, 4, 0, 7, 7, 9, 8, 10, 5
      |7, 4, 11, 4, 5, 14, 3, 7, 0, 2, 8, 7, 3, 4
      |5, 6, 9, 2, 3, 12, 3, 7, 2, 0, 6, 7, 5, 4
      |1, 12, 5, 4, 9, 8, 5, 9, 8, 6, 0, 5, 11, 6
      |6, 11, 10, 9, 10, 13, 4, 8, 7, 7, 5, 0, 10, 5
      |10, 1, 14, 7, 8, 17, 6, 10, 3, 5, 11, 10, 0, 7
      |5, 8, 9, 6, 7, 12, 1, 5, 4, 4, 6, 5, 7, 0
      |];

% Initial object distribution
S_init = [0, 1, 0, 1, 0, 0, 0, 0, 0, 1, 0, 0, 0, 0];

% Target nodes (1 if target, 0 otherwise)
T = [1, 0, 0, 0, 0, 0, 0, 0, 1, 0, 0, 0, 0, 1];

% Initial truck position (1-based indexing)
u = 10;

% --- DEBUG TRACE ---
% --- GENERATION TRACE (Backwards from Target) ---
% Initial distribution (all on targets): [1, 0, 0, 0, 0, 0, 0, 0, 1, 0, 0, 0, 0, 1]
% Step 1: Selected target node 9 (has 1 objects)
% Step 1: Moved object 9 -> 13
% Step 1: Distribution: [1, 0, 0, 0, 0, 0, 0, 0, 0, 0, 0, 0, 1, 1]
% Step 2: Selected target node 1 (has 1 objects)
% Step 2: Moved object 1 -> 10
% Step 2: Distribution: [0, 0, 0, 0, 0, 0, 0, 0, 0, 1, 0, 0, 1, 1]
% Step 3: Selected target node 14 (has 1 objects)
% Step 3: Moved object 14 -> 7
% Step 3: Distribution: [0, 0, 0, 0, 0, 0, 1, 0, 0, 1, 0, 0, 1, 0]
% Step 4: Selected non-target node 13 (has 1 objects)
% Step 4: Avoiding backtrack to node 9
% Step 4: Moved object 13 -> 2
% Step 4: Distribution: [0, 1, 0, 0, 0, 0, 1, 0, 0, 1, 0, 0, 0, 0]
% Step 5: Selected non-target node 7 (has 1 objects)
% Step 5: Avoiding backtrack to node 14
% Step 5: Moved object 7 -> 10
% Step 5: Distribution: [0, 1, 0, 0, 0, 0, 0, 0, 0, 2, 0, 0, 0, 0]
% Step 6: Selected non-target node 2 (has 1 objects)
% Step 6: Moved object 2 -> 13
% Step 6: Distribution: [0, 0, 0, 0, 0, 0, 0, 0, 0, 2, 0, 0, 1, 0]
% Step 7: Selected non-target node 13 (has 1 objects)
% Step 7: Moved object 13 -> 2
% Step 7: Distribution: [0, 1, 0, 0, 0, 0, 0, 0, 0, 2, 0, 0, 0, 0]
% Step 8: Selected non-target node 10 (has 2 objects)
% Step 8: Avoiding backtrack to node 7
% Step 8: Moved object 10 -> 4
% Step 8: Distribution: [0, 1, 0, 1, 0, 0, 0, 0, 0, 1, 0, 0, 0, 0]
% Truck starting position: 10
