% instance_n10_c1_k11_i7.dzn
% Generated instance for the Trucks problem
% N=10, h=3, k=11

% Number of nodes
N = 10;

% Number of objects
h = 3;

% Maximum plan length
%k = 11;

% Adjacency matrix (0-based internal, will be converted to 1-based)
Adj = [|0, 1, 0, 0, 1, 0, 1, 1, 0, 1
      |1, 0, 0, 0, 0, 0, 1, 0, 0, 0
      |0, 0, 0, 0, 0, 0, 0, 0, 1, 0
      |0, 0, 0, 0, 0, 0, 0, 1, 0, 0
      |1, 0, 0, 0, 0, 0, 0, 0, 1, 0
      |0, 0, 0, 0, 0, 0, 1, 0, 0, 0
      |1, 1, 0, 0, 0, 1, 0, 0, 0, 0
      |1, 0, 0, 1, 0, 0, 0, 0, 0, 0
      |0, 0, 1, 0, 1, 0, 0, 0, 0, 0
      |1, 0, 0, 0, 0, 0, 0, 0, 0, 0
      |];

% Weights matrix (edge weights)
% Weights = [|0, 3, 0, 0, 3, 0, 4, 1, 0, 2
%           |3, 0, 0, 0, 0, 0, 2, 0, 0, 0
%           |0, 0, 0, 0, 0, 0, 0, 0, 1, 0
%           |0, 0, 0, 0, 0, 0, 0, 4, 0, 0
%           |3, 0, 0, 0, 0, 0, 0, 0, 3, 0
%           |0, 0, 0, 0, 0, 0, 4, 0, 0, 0
%           |4, 2, 0, 0, 0, 4, 0, 0, 0, 0
%           |1, 0, 0, 4, 0, 0, 0, 0, 0, 0
%           |0, 0, 1, 0, 3, 0, 0, 0, 0, 0
%           |2, 0, 0, 0, 0, 0, 0, 0, 0, 0
%           |];

% Distance matrix
Dist = [|0, 3, 7, 5, 3, 8, 4, 1, 6, 2
      |3, 0, 10, 8, 6, 6, 2, 4, 9, 5
      |7, 10, 0, 12, 4, 15, 11, 8, 1, 9
      |5, 8, 12, 0, 8, 13, 9, 4, 11, 7
      |3, 6, 4, 8, 0, 11, 7, 4, 3, 5
      |8, 6, 15, 13, 11, 0, 4, 9, 14, 10
      |4, 2, 11, 9, 7, 4, 0, 5, 10, 6
      |1, 4, 8, 4, 4, 9, 5, 0, 7, 3
      |6, 9, 1, 11, 3, 14, 10, 7, 0, 8
      |2, 5, 9, 7, 5, 10, 6, 3, 8, 0
      |];

% Initial object distribution
S_init = [0, 0, 0, 0, 0, 0, 1, 0, 2, 0];

% Target nodes (1 if target, 0 otherwise)
T = [0, 0, 1, 0, 1, 0, 0, 1, 0, 0];

% Initial truck position (1-based indexing)
u = 6;

% --- DEBUG TRACE ---
% --- GENERATION TRACE (Backwards from Target) ---
% Initial distribution (all on targets): [0, 0, 1, 0, 1, 0, 0, 1, 0, 0]
% Step 1: Selected target node 3 (has 1 objects)
% Step 1: Moved object 3 -> 9
% Step 1: Distribution: [0, 0, 0, 0, 1, 0, 0, 1, 1, 0]
% Step 2: Selected target node 8 (has 1 objects)
% Step 2: Moved object 8 -> 1
% Step 2: Distribution: [1, 0, 0, 0, 1, 0, 0, 0, 1, 0]
% Step 3: Selected target node 5 (has 1 objects)
% Step 3: Moved object 5 -> 9
% Step 3: Distribution: [1, 0, 0, 0, 0, 0, 0, 0, 2, 0]
% Step 4: Selected non-target node 1 (has 1 objects)
% Step 4: Avoiding backtrack to node 8
% Step 4: Moved object 1 -> 10
% Step 4: Distribution: [0, 0, 0, 0, 0, 0, 0, 0, 2, 1]
% Step 5: Selected non-target node 10 (has 1 objects)
% Step 5: Moved object 10 -> 1
% Step 5: Distribution: [1, 0, 0, 0, 0, 0, 0, 0, 2, 0]
% Step 6: Selected non-target node 1 (has 1 objects)
% Step 6: Avoiding backtrack to node 10
% Step 6: Moved object 1 -> 7
% Step 6: Distribution: [0, 0, 0, 0, 0, 0, 1, 0, 2, 0]
% Step 7: Selected non-target node 7 (has 1 objects)
% Step 7: Avoiding backtrack to node 1
% Step 7: Moved object 7 -> 6
% Step 7: Distribution: [0, 0, 0, 0, 0, 1, 0, 0, 2, 0]
% Step 8: Selected non-target node 9 (has 2 objects)
% Step 8: Selected non-target node 6 (has 1 objects)
% Step 8: Moved object 6 -> 7
% Step 8: Distribution: [0, 0, 0, 0, 0, 0, 1, 0, 2, 0]
% Step 9: Selected non-target node 9 (has 2 objects)
% Step 9: Selected non-target node 7 (has 1 objects)
% Step 9: Avoiding backtrack to node 6
% Step 9: Moved object 7 -> 2
% Step 9: Distribution: [0, 1, 0, 0, 0, 0, 0, 0, 2, 0]
% Step 10: Selected non-target node 2 (has 1 objects)
% Step 10: Avoiding backtrack to node 7
% Step 10: Moved object 2 -> 1
% Step 10: Distribution: [1, 0, 0, 0, 0, 0, 0, 0, 2, 0]
% Step 11: Selected non-target node 1 (has 1 objects)
% Step 11: Avoiding backtrack to node 2
% Step 11: Moved object 1 -> 7
% Step 11: Distribution: [0, 0, 0, 0, 0, 0, 1, 0, 2, 0]
% Truck starting position: 6
