% instance_n22_c2_k5_i70.dzn
% Generated instance for the Trucks problem
% N=22, h=5, k=5

% Number of nodes
N = 22;

% Number of objects
h = 5;

% Maximum plan length
%k = 5;

% Adjacency matrix (0-based internal, will be converted to 1-based)
Adj = [|0, 0, 0, 0, 0, 0, 0, 1, 0, 0, 1, 1, 0, 0, 0, 0, 0, 0, 1, 0, 0, 0
      |0, 0, 0, 0, 0, 1, 0, 1, 0, 0, 0, 0, 0, 0, 0, 0, 0, 0, 0, 0, 0, 0
      |0, 0, 0, 0, 0, 0, 0, 1, 0, 0, 0, 0, 0, 1, 0, 0, 0, 0, 0, 0, 0, 0
      |0, 0, 0, 0, 0, 1, 0, 1, 0, 0, 0, 0, 0, 0, 0, 0, 0, 0, 0, 0, 0, 0
      |0, 0, 0, 0, 0, 0, 1, 0, 0, 0, 0, 0, 1, 1, 1, 0, 0, 0, 1, 0, 0, 0
      |0, 1, 0, 1, 0, 0, 0, 0, 0, 0, 0, 0, 0, 0, 0, 0, 0, 0, 0, 0, 1, 0
      |0, 0, 0, 0, 1, 0, 0, 0, 0, 0, 0, 0, 0, 0, 0, 0, 0, 0, 0, 1, 0, 0
      |1, 1, 1, 1, 0, 0, 0, 0, 0, 0, 0, 0, 0, 0, 0, 0, 0, 1, 0, 0, 0, 0
      |0, 0, 0, 0, 0, 0, 0, 0, 0, 0, 0, 0, 0, 0, 0, 0, 0, 1, 0, 0, 0, 1
      |0, 0, 0, 0, 0, 0, 0, 0, 0, 0, 0, 0, 0, 1, 0, 1, 0, 0, 0, 0, 0, 0
      |1, 0, 0, 0, 0, 0, 0, 0, 0, 0, 0, 0, 0, 0, 1, 0, 0, 0, 0, 1, 0, 0
      |1, 0, 0, 0, 0, 0, 0, 0, 0, 0, 0, 0, 0, 0, 0, 0, 0, 1, 0, 0, 0, 0
      |0, 0, 0, 0, 1, 0, 0, 0, 0, 0, 0, 0, 0, 0, 0, 0, 0, 0, 0, 0, 1, 0
      |0, 0, 1, 0, 1, 0, 0, 0, 0, 1, 0, 0, 0, 0, 0, 0, 0, 0, 0, 0, 0, 0
      |0, 0, 0, 0, 1, 0, 0, 0, 0, 0, 1, 0, 0, 0, 0, 0, 0, 0, 0, 0, 0, 0
      |0, 0, 0, 0, 0, 0, 0, 0, 0, 1, 0, 0, 0, 0, 0, 0, 0, 0, 0, 0, 0, 0
      |0, 0, 0, 0, 0, 0, 0, 0, 0, 0, 0, 0, 0, 0, 0, 0, 0, 0, 1, 0, 0, 0
      |0, 0, 0, 0, 0, 0, 0, 1, 1, 0, 0, 1, 0, 0, 0, 0, 0, 0, 0, 0, 0, 0
      |1, 0, 0, 0, 1, 0, 0, 0, 0, 0, 0, 0, 0, 0, 0, 0, 1, 0, 0, 0, 1, 0
      |0, 0, 0, 0, 0, 0, 1, 0, 0, 0, 1, 0, 0, 0, 0, 0, 0, 0, 0, 0, 0, 0
      |0, 0, 0, 0, 0, 1, 0, 0, 0, 0, 0, 0, 1, 0, 0, 0, 0, 0, 1, 0, 0, 0
      |0, 0, 0, 0, 0, 0, 0, 0, 1, 0, 0, 0, 0, 0, 0, 0, 0, 0, 0, 0, 0, 0
      |];

% Weights matrix (edge weights)
% Weights = [|0, 0, 0, 0, 0, 0, 0, 1, 0, 0, 3, 2, 0, 0, 0, 0, 0, 0, 5, 0, 0, 0
%           |0, 0, 0, 0, 0, 3, 0, 3, 0, 0, 0, 0, 0, 0, 0, 0, 0, 0, 0, 0, 0, 0
%           |0, 0, 0, 0, 0, 0, 0, 3, 0, 0, 0, 0, 0, 2, 0, 0, 0, 0, 0, 0, 0, 0
%           |0, 0, 0, 0, 0, 3, 0, 2, 0, 0, 0, 0, 0, 0, 0, 0, 0, 0, 0, 0, 0, 0
%           |0, 0, 0, 0, 0, 0, 3, 0, 0, 0, 0, 0, 5, 4, 1, 0, 0, 0, 3, 0, 0, 0
%           |0, 3, 0, 3, 0, 0, 0, 0, 0, 0, 0, 0, 0, 0, 0, 0, 0, 0, 0, 0, 3, 0
%           |0, 0, 0, 0, 3, 0, 0, 0, 0, 0, 0, 0, 0, 0, 0, 0, 0, 0, 0, 5, 0, 0
%           |1, 3, 3, 2, 0, 0, 0, 0, 0, 0, 0, 0, 0, 0, 0, 0, 0, 2, 0, 0, 0, 0
%           |0, 0, 0, 0, 0, 0, 0, 0, 0, 0, 0, 0, 0, 0, 0, 0, 0, 2, 0, 0, 0, 3
%           |0, 0, 0, 0, 0, 0, 0, 0, 0, 0, 0, 0, 0, 4, 0, 1, 0, 0, 0, 0, 0, 0
%           |3, 0, 0, 0, 0, 0, 0, 0, 0, 0, 0, 0, 0, 0, 5, 0, 0, 0, 0, 2, 0, 0
%           |2, 0, 0, 0, 0, 0, 0, 0, 0, 0, 0, 0, 0, 0, 0, 0, 0, 4, 0, 0, 0, 0
%           |0, 0, 0, 0, 5, 0, 0, 0, 0, 0, 0, 0, 0, 0, 0, 0, 0, 0, 0, 0, 3, 0
%           |0, 0, 2, 0, 4, 0, 0, 0, 0, 4, 0, 0, 0, 0, 0, 0, 0, 0, 0, 0, 0, 0
%           |0, 0, 0, 0, 1, 0, 0, 0, 0, 0, 5, 0, 0, 0, 0, 0, 0, 0, 0, 0, 0, 0
%           |0, 0, 0, 0, 0, 0, 0, 0, 0, 1, 0, 0, 0, 0, 0, 0, 0, 0, 0, 0, 0, 0
%           |0, 0, 0, 0, 0, 0, 0, 0, 0, 0, 0, 0, 0, 0, 0, 0, 0, 0, 3, 0, 0, 0
%           |0, 0, 0, 0, 0, 0, 0, 2, 2, 0, 0, 4, 0, 0, 0, 0, 0, 0, 0, 0, 0, 0
%           |5, 0, 0, 0, 3, 0, 0, 0, 0, 0, 0, 0, 0, 0, 0, 0, 3, 0, 0, 0, 3, 0
%           |0, 0, 0, 0, 0, 0, 5, 0, 0, 0, 2, 0, 0, 0, 0, 0, 0, 0, 0, 0, 0, 0
%           |0, 0, 0, 0, 0, 3, 0, 0, 0, 0, 0, 0, 3, 0, 0, 0, 0, 0, 3, 0, 0, 0
%           |0, 0, 0, 0, 0, 0, 0, 0, 3, 0, 0, 0, 0, 0, 0, 0, 0, 0, 0, 0, 0, 0
%           |];

% Distance matrix
Dist = [|0, 4, 4, 3, 8, 6, 10, 1, 5, 10, 3, 2, 11, 6, 8, 11, 8, 3, 5, 5, 8, 8
      |4, 0, 6, 5, 12, 3, 14, 3, 7, 12, 7, 6, 9, 8, 12, 13, 12, 5, 9, 9, 6, 10
      |4, 6, 0, 5, 6, 8, 9, 3, 7, 6, 7, 6, 11, 2, 7, 7, 12, 5, 9, 9, 11, 10
      |3, 5, 5, 0, 11, 3, 13, 2, 6, 11, 6, 5, 9, 7, 11, 12, 11, 4, 8, 8, 6, 9
      |8, 12, 6, 11, 0, 9, 3, 9, 13, 8, 6, 10, 5, 4, 1, 9, 6, 11, 3, 8, 6, 16
      |6, 3, 8, 3, 9, 0, 12, 5, 9, 14, 9, 8, 6, 10, 10, 15, 9, 7, 6, 11, 3, 12
      |10, 14, 9, 13, 3, 12, 0, 11, 15, 11, 7, 12, 8, 7, 4, 12, 9, 13, 6, 5, 9, 18
      |1, 3, 3, 2, 9, 5, 11, 0, 4, 9, 4, 3, 11, 5, 9, 10, 9, 2, 6, 6, 8, 7
      |5, 7, 7, 6, 13, 9, 15, 4, 0, 13, 8, 6, 15, 9, 13, 14, 13, 2, 10, 10, 12, 3
      |10, 12, 6, 11, 8, 14, 11, 9, 13, 0, 13, 12, 13, 4, 9, 1, 14, 11, 11, 15, 14, 16
      |3, 7, 7, 6, 6, 9, 7, 4, 8, 13, 0, 5, 11, 9, 5, 14, 11, 6, 8, 2, 11, 11
      |2, 6, 6, 5, 10, 8, 12, 3, 6, 12, 5, 0, 13, 8, 10, 13, 10, 4, 7, 7, 10, 9
      |11, 9, 11, 9, 5, 6, 8, 11, 15, 13, 11, 13, 0, 9, 6, 14, 9, 13, 6, 13, 3, 18
      |6, 8, 2, 7, 4, 10, 7, 5, 9, 4, 9, 8, 9, 0, 5, 5, 10, 7, 7, 11, 10, 12
      |8, 12, 7, 11, 1, 10, 4, 9, 13, 9, 5, 10, 6, 5, 0, 10, 7, 11, 4, 7, 7, 16
      |11, 13, 7, 12, 9, 15, 12, 10, 14, 1, 14, 13, 14, 5, 10, 0, 15, 12, 12, 16, 15, 17
      |8, 12, 12, 11, 6, 9, 9, 9, 13, 14, 11, 10, 9, 10, 7, 15, 0, 11, 3, 13, 6, 16
      |3, 5, 5, 4, 11, 7, 13, 2, 2, 11, 6, 4, 13, 7, 11, 12, 11, 0, 8, 8, 10, 5
      |5, 9, 9, 8, 3, 6, 6, 6, 10, 11, 8, 7, 6, 7, 4, 12, 3, 8, 0, 10, 3, 13
      |5, 9, 9, 8, 8, 11, 5, 6, 10, 15, 2, 7, 13, 11, 7, 16, 13, 8, 10, 0, 13, 13
      |8, 6, 11, 6, 6, 3, 9, 8, 12, 14, 11, 10, 3, 10, 7, 15, 6, 10, 3, 13, 0, 15
      |8, 10, 10, 9, 16, 12, 18, 7, 3, 16, 11, 9, 18, 12, 16, 17, 16, 5, 13, 13, 15, 0
      |];

% Initial object distribution
S_init = [0, 0, 0, 0, 0, 0, 0, 1, 1, 0, 0, 1, 0, 0, 0, 0, 0, 0, 1, 0, 1, 0];

% Target nodes (1 if target, 0 otherwise)
T = [1, 1, 0, 0, 0, 0, 0, 0, 0, 0, 0, 1, 0, 0, 0, 0, 0, 1, 0, 0, 0, 0];

% Initial truck position (1-based indexing)
u = 21;

% --- DEBUG TRACE ---
% --- GENERATION TRACE (Backwards from Target) ---
% Initial distribution (all on targets): [2, 1, 0, 0, 0, 0, 0, 0, 0, 0, 0, 1, 0, 0, 0, 0, 0, 1, 0, 0, 0, 0]
% Step 1: Selected target node 2 (has 1 objects)
% Step 1: Moved object 2 -> 6
% Step 1: Distribution: [2, 0, 0, 0, 0, 1, 0, 0, 0, 0, 0, 1, 0, 0, 0, 0, 0, 1, 0, 0, 0, 0]
% Step 2: Selected target node 12 (has 1 objects)
% Step 2: Selected target node 1 (has 2 objects)
% Step 2: Moved object 1 -> 8
% Step 2: Distribution: [1, 0, 0, 0, 0, 1, 0, 1, 0, 0, 0, 1, 0, 0, 0, 0, 0, 1, 0, 0, 0, 0]
% Step 3: Selected target node 18 (has 1 objects)
% Step 3: Moved object 18 -> 9
% Step 3: Distribution: [1, 0, 0, 0, 0, 1, 0, 1, 1, 0, 0, 1, 0, 0, 0, 0, 0, 0, 0, 0, 0, 0]
% Step 4: Selected target node 12 (has 1 objects)
% Step 4: Selected target node 1 (has 1 objects)
% Step 4: Moved object 1 -> 19
% Step 4: Distribution: [0, 0, 0, 0, 0, 1, 0, 1, 1, 0, 0, 1, 0, 0, 0, 0, 0, 0, 1, 0, 0, 0]
% Step 5: Selected target node 12 (has 1 objects)
% Step 5: Selected non-target node 6 (has 1 objects)
% Step 5: Avoiding backtrack to node 2
% Step 5: Moved object 6 -> 21
% Step 5: Distribution: [0, 0, 0, 0, 0, 0, 0, 1, 1, 0, 0, 1, 0, 0, 0, 0, 0, 0, 1, 0, 1, 0]
% Truck starting position: 21
