% instance_n10_c1_k5_i5.dzn
% Generated instance for the Trucks problem
% N=10, h=3, k=5

% Number of nodes
N = 10;

% Number of objects
h = 3;

% Maximum plan length
%k = 5;

% Adjacency matrix (0-based internal, will be converted to 1-based)
Adj = [|0, 1, 0, 1, 0, 0, 0, 0, 0, 0
      |1, 0, 1, 0, 1, 0, 1, 0, 1, 0
      |0, 1, 0, 0, 0, 0, 0, 0, 0, 1
      |1, 0, 0, 0, 0, 0, 0, 0, 0, 0
      |0, 1, 0, 0, 0, 0, 0, 1, 1, 1
      |0, 0, 0, 0, 0, 0, 0, 0, 0, 1
      |0, 1, 0, 0, 0, 0, 0, 0, 1, 0
      |0, 0, 0, 0, 1, 0, 0, 0, 1, 0
      |0, 1, 0, 0, 1, 0, 1, 1, 0, 0
      |0, 0, 1, 0, 1, 1, 0, 0, 0, 0
      |];

% Weights matrix (edge weights)
% Weights = [|0, 1, 0, 1, 0, 0, 0, 0, 0, 0
%           |1, 0, 1, 0, 4, 0, 3, 0, 5, 0
%           |0, 1, 0, 0, 0, 0, 0, 0, 0, 2
%           |1, 0, 0, 0, 0, 0, 0, 0, 0, 0
%           |0, 4, 0, 0, 0, 0, 0, 4, 1, 3
%           |0, 0, 0, 0, 0, 0, 0, 0, 0, 1
%           |0, 3, 0, 0, 0, 0, 0, 0, 5, 0
%           |0, 0, 0, 0, 4, 0, 0, 0, 4, 0
%           |0, 5, 0, 0, 1, 0, 5, 4, 0, 0
%           |0, 0, 2, 0, 3, 1, 0, 0, 0, 0
%           |];

% Distance matrix
Dist = [|0, 1, 2, 1, 5, 5, 4, 9, 6, 4
      |1, 0, 1, 2, 4, 4, 3, 8, 5, 3
      |2, 1, 0, 3, 5, 3, 4, 9, 6, 2
      |1, 2, 3, 0, 6, 6, 5, 10, 7, 5
      |5, 4, 5, 6, 0, 4, 6, 4, 1, 3
      |5, 4, 3, 6, 4, 0, 7, 8, 5, 1
      |4, 3, 4, 5, 6, 7, 0, 9, 5, 6
      |9, 8, 9, 10, 4, 8, 9, 0, 4, 7
      |6, 5, 6, 7, 1, 5, 5, 4, 0, 4
      |4, 3, 2, 5, 3, 1, 6, 7, 4, 0
      |];

% Initial object distribution
S_init = [0, 0, 0, 1, 0, 0, 0, 0, 1, 1];

% Target nodes (1 if target, 0 otherwise)
T = [1, 1, 0, 0, 0, 0, 0, 1, 0, 0];

% Initial truck position (1-based indexing)
u = 3;

% --- DEBUG TRACE ---
% --- GENERATION TRACE (Backwards from Target) ---
% Initial distribution (all on targets): [1, 1, 0, 0, 0, 0, 0, 1, 0, 0]
% Step 1: Selected target node 1 (has 1 objects)
% Step 1: Moved object 1 -> 4
% Step 1: Distribution: [0, 1, 0, 1, 0, 0, 0, 1, 0, 0]
% Step 2: Selected target node 8 (has 1 objects)
% Step 2: Moved object 8 -> 5
% Step 2: Distribution: [0, 1, 0, 1, 1, 0, 0, 0, 0, 0]
% Step 3: Selected target node 2 (has 1 objects)
% Step 3: Moved object 2 -> 5
% Step 3: Distribution: [0, 0, 0, 1, 2, 0, 0, 0, 0, 0]
% Step 4: Selected non-target node 5 (has 2 objects)
% Step 4: Avoiding backtrack to node 2
% Step 4: Moved object 5 -> 9
% Step 4: Distribution: [0, 0, 0, 1, 1, 0, 0, 0, 1, 0]
% Step 5: Selected non-target node 4 (has 1 objects)
% Step 5: Selected non-target node 5 (has 1 objects)
% Step 5: Avoiding backtrack to node 2
% Step 5: Moved object 5 -> 10
% Step 5: Distribution: [0, 0, 0, 1, 0, 0, 0, 0, 1, 1]
% Truck starting position: 3
