% instance_n18_c2_k8_i51.dzn
% Generated instance for the Trucks problem
% N=18, h=4, k=8

% Number of nodes
N = 18;

% Number of objects
h = 4;

% Maximum plan length
%k = 8;

% Adjacency matrix (0-based internal, will be converted to 1-based)
Adj = [|0, 0, 0, 0, 0, 0, 1, 0, 1, 0, 0, 0, 1, 0, 0, 0, 0, 0
      |0, 0, 1, 0, 1, 0, 0, 0, 0, 0, 0, 0, 0, 0, 0, 0, 0, 0
      |0, 1, 0, 1, 0, 0, 1, 0, 0, 0, 1, 0, 0, 0, 0, 0, 0, 0
      |0, 0, 1, 0, 0, 0, 0, 0, 0, 0, 0, 0, 1, 0, 0, 0, 0, 0
      |0, 1, 0, 0, 0, 0, 0, 0, 0, 1, 0, 0, 1, 0, 0, 0, 0, 0
      |0, 0, 0, 0, 0, 0, 1, 0, 0, 0, 0, 0, 0, 0, 1, 0, 0, 0
      |1, 0, 1, 0, 0, 1, 0, 0, 0, 0, 0, 0, 0, 0, 0, 0, 0, 0
      |0, 0, 0, 0, 0, 0, 0, 0, 1, 0, 0, 0, 1, 0, 0, 0, 0, 0
      |1, 0, 0, 0, 0, 0, 0, 1, 0, 0, 0, 0, 0, 1, 0, 0, 0, 1
      |0, 0, 0, 0, 1, 0, 0, 0, 0, 0, 0, 1, 0, 0, 0, 0, 0, 0
      |0, 0, 1, 0, 0, 0, 0, 0, 0, 0, 0, 0, 0, 0, 0, 0, 0, 0
      |0, 0, 0, 0, 0, 0, 0, 0, 0, 1, 0, 0, 1, 0, 0, 1, 0, 0
      |1, 0, 0, 1, 1, 0, 0, 1, 0, 0, 0, 1, 0, 0, 0, 0, 0, 0
      |0, 0, 0, 0, 0, 0, 0, 0, 1, 0, 0, 0, 0, 0, 0, 0, 0, 0
      |0, 0, 0, 0, 0, 1, 0, 0, 0, 0, 0, 0, 0, 0, 0, 1, 0, 0
      |0, 0, 0, 0, 0, 0, 0, 0, 0, 0, 0, 1, 0, 0, 1, 0, 0, 0
      |0, 0, 0, 0, 0, 0, 0, 0, 0, 0, 0, 0, 0, 0, 0, 0, 0, 1
      |0, 0, 0, 0, 0, 0, 0, 0, 1, 0, 0, 0, 0, 0, 0, 0, 1, 0
      |];

% Weights matrix (edge weights)
% Weights = [|0, 0, 0, 0, 0, 0, 5, 0, 4, 0, 0, 0, 4, 0, 0, 0, 0, 0
%           |0, 0, 2, 0, 4, 0, 0, 0, 0, 0, 0, 0, 0, 0, 0, 0, 0, 0
%           |0, 2, 0, 5, 0, 0, 2, 0, 0, 0, 5, 0, 0, 0, 0, 0, 0, 0
%           |0, 0, 5, 0, 0, 0, 0, 0, 0, 0, 0, 0, 3, 0, 0, 0, 0, 0
%           |0, 4, 0, 0, 0, 0, 0, 0, 0, 1, 0, 0, 5, 0, 0, 0, 0, 0
%           |0, 0, 0, 0, 0, 0, 1, 0, 0, 0, 0, 0, 0, 0, 5, 0, 0, 0
%           |5, 0, 2, 0, 0, 1, 0, 0, 0, 0, 0, 0, 0, 0, 0, 0, 0, 0
%           |0, 0, 0, 0, 0, 0, 0, 0, 4, 0, 0, 0, 5, 0, 0, 0, 0, 0
%           |4, 0, 0, 0, 0, 0, 0, 4, 0, 0, 0, 0, 0, 3, 0, 0, 0, 1
%           |0, 0, 0, 0, 1, 0, 0, 0, 0, 0, 0, 1, 0, 0, 0, 0, 0, 0
%           |0, 0, 5, 0, 0, 0, 0, 0, 0, 0, 0, 0, 0, 0, 0, 0, 0, 0
%           |0, 0, 0, 0, 0, 0, 0, 0, 0, 1, 0, 0, 1, 0, 0, 1, 0, 0
%           |4, 0, 0, 3, 5, 0, 0, 5, 0, 0, 0, 1, 0, 0, 0, 0, 0, 0
%           |0, 0, 0, 0, 0, 0, 0, 0, 3, 0, 0, 0, 0, 0, 0, 0, 0, 0
%           |0, 0, 0, 0, 0, 5, 0, 0, 0, 0, 0, 0, 0, 0, 0, 4, 0, 0
%           |0, 0, 0, 0, 0, 0, 0, 0, 0, 0, 0, 1, 0, 0, 4, 0, 0, 0
%           |0, 0, 0, 0, 0, 0, 0, 0, 0, 0, 0, 0, 0, 0, 0, 0, 0, 5
%           |0, 0, 0, 0, 0, 0, 0, 0, 1, 0, 0, 0, 0, 0, 0, 0, 5, 0
%           |];

% Distance matrix
Dist = [|0, 9, 7, 7, 7, 6, 5, 8, 4, 6, 12, 5, 4, 7, 10, 6, 10, 5
      |9, 0, 2, 7, 4, 5, 4, 12, 13, 5, 7, 6, 7, 16, 10, 7, 19, 14
      |7, 2, 0, 5, 6, 3, 2, 13, 11, 7, 5, 8, 8, 14, 8, 9, 17, 12
      |7, 7, 5, 0, 6, 8, 7, 8, 11, 5, 10, 4, 3, 14, 9, 5, 17, 12
      |7, 4, 6, 6, 0, 9, 8, 8, 11, 1, 11, 2, 3, 14, 7, 3, 17, 12
      |6, 5, 3, 8, 9, 0, 1, 14, 10, 10, 8, 10, 10, 13, 5, 9, 16, 11
      |5, 4, 2, 7, 8, 1, 0, 13, 9, 9, 7, 10, 9, 12, 6, 10, 15, 10
      |8, 12, 13, 8, 8, 14, 13, 0, 4, 7, 18, 6, 5, 7, 11, 7, 10, 5
      |4, 13, 11, 11, 11, 10, 9, 4, 0, 10, 16, 9, 8, 3, 14, 10, 6, 1
      |6, 5, 7, 5, 1, 10, 9, 7, 10, 0, 12, 1, 2, 13, 6, 2, 16, 11
      |12, 7, 5, 10, 11, 8, 7, 18, 16, 12, 0, 13, 13, 19, 13, 14, 22, 17
      |5, 6, 8, 4, 2, 10, 10, 6, 9, 1, 13, 0, 1, 12, 5, 1, 15, 10
      |4, 7, 8, 3, 3, 10, 9, 5, 8, 2, 13, 1, 0, 11, 6, 2, 14, 9
      |7, 16, 14, 14, 14, 13, 12, 7, 3, 13, 19, 12, 11, 0, 17, 13, 9, 4
      |10, 10, 8, 9, 7, 5, 6, 11, 14, 6, 13, 5, 6, 17, 0, 4, 20, 15
      |6, 7, 9, 5, 3, 9, 10, 7, 10, 2, 14, 1, 2, 13, 4, 0, 16, 11
      |10, 19, 17, 17, 17, 16, 15, 10, 6, 16, 22, 15, 14, 9, 20, 16, 0, 5
      |5, 14, 12, 12, 12, 11, 10, 5, 1, 11, 17, 10, 9, 4, 15, 11, 5, 0
      |];

% Initial object distribution
S_init = [0, 0, 0, 0, 0, 0, 1, 0, 0, 0, 0, 0, 1, 1, 0, 0, 1, 0];

% Target nodes (1 if target, 0 otherwise)
T = [0, 0, 0, 1, 0, 0, 0, 0, 1, 0, 1, 0, 0, 0, 0, 0, 0, 1];

% Initial truck position (1-based indexing)
u = 17;

% --- DEBUG TRACE ---
% --- GENERATION TRACE (Backwards from Target) ---
% Initial distribution (all on targets): [0, 0, 0, 1, 0, 0, 0, 0, 1, 0, 1, 0, 0, 0, 0, 0, 0, 1]
% Step 1: Selected target node 4 (has 1 objects)
% Step 1: Moved object 4 -> 3
% Step 1: Distribution: [0, 0, 1, 0, 0, 0, 0, 0, 1, 0, 1, 0, 0, 0, 0, 0, 0, 1]
% Step 2: Selected target node 9 (has 1 objects)
% Step 2: Moved object 9 -> 14
% Step 2: Distribution: [0, 0, 1, 0, 0, 0, 0, 0, 0, 0, 1, 0, 0, 1, 0, 0, 0, 1]
% Step 3: Selected target node 18 (has 1 objects)
% Step 3: Moved object 18 -> 17
% Step 3: Distribution: [0, 0, 1, 0, 0, 0, 0, 0, 0, 0, 1, 0, 0, 1, 0, 0, 1, 0]
% Step 4: Selected target node 11 (has 1 objects)
% Step 4: Moved object 11 -> 3
% Step 4: Distribution: [0, 0, 2, 0, 0, 0, 0, 0, 0, 0, 0, 0, 0, 1, 0, 0, 1, 0]
% Step 5: Selected non-target node 3 (has 2 objects)
% Step 5: Avoiding backtrack to node 11
% Step 5: Moved object 3 -> 7
% Step 5: Distribution: [0, 0, 1, 0, 0, 0, 1, 0, 0, 0, 0, 0, 0, 1, 0, 0, 1, 0]
% Step 6: Selected non-target node 17 (has 1 objects)
% Step 6: Selected non-target node 3 (has 1 objects)
% Step 6: Avoiding backtrack to node 11
% Step 6: Moved object 3 -> 7
% Step 6: Distribution: [0, 0, 0, 0, 0, 0, 2, 0, 0, 0, 0, 0, 0, 1, 0, 0, 1, 0]
% Step 7: Selected non-target node 14 (has 1 objects)
% Step 7: Selected non-target node 17 (has 1 objects)
% Step 7: Selected non-target node 7 (has 2 objects)
% Step 7: Avoiding backtrack to node 3
% Step 7: Moved object 7 -> 1
% Step 7: Distribution: [1, 0, 0, 0, 0, 0, 1, 0, 0, 0, 0, 0, 0, 1, 0, 0, 1, 0]
% Step 8: Selected non-target node 1 (has 1 objects)
% Step 8: Avoiding backtrack to node 7
% Step 8: Moved object 1 -> 13
% Step 8: Distribution: [0, 0, 0, 0, 0, 0, 1, 0, 0, 0, 0, 0, 1, 1, 0, 0, 1, 0]
% Truck starting position: 17
