% instance_n14_c0_k14_i23.dzn
% Generated instance for the Trucks problem
% N=14, h=3, k=14

% Number of nodes
N = 14;

% Number of objects
h = 3;

% Maximum plan length
%k = 14;

% Adjacency matrix (0-based internal, will be converted to 1-based)
Adj = [|0, 0, 1, 0, 0, 1, 1, 0, 0, 1, 1, 1, 0, 0
      |0, 0, 0, 0, 0, 0, 1, 0, 0, 0, 0, 0, 0, 1
      |1, 0, 0, 0, 0, 0, 0, 0, 0, 0, 0, 0, 0, 0
      |0, 0, 0, 0, 0, 0, 1, 0, 0, 0, 0, 0, 1, 0
      |0, 0, 0, 0, 0, 0, 0, 0, 1, 1, 1, 0, 0, 0
      |1, 0, 0, 0, 0, 0, 0, 0, 0, 0, 0, 0, 0, 0
      |1, 1, 0, 1, 0, 0, 0, 0, 0, 0, 0, 0, 0, 1
      |0, 0, 0, 0, 0, 0, 0, 0, 0, 0, 0, 0, 1, 0
      |0, 0, 0, 0, 1, 0, 0, 0, 0, 1, 0, 0, 0, 0
      |1, 0, 0, 0, 1, 0, 0, 0, 1, 0, 0, 0, 0, 0
      |1, 0, 0, 0, 1, 0, 0, 0, 0, 0, 0, 0, 0, 1
      |1, 0, 0, 0, 0, 0, 0, 0, 0, 0, 0, 0, 0, 0
      |0, 0, 0, 1, 0, 0, 0, 1, 0, 0, 0, 0, 0, 0
      |0, 1, 0, 0, 0, 0, 1, 0, 0, 0, 1, 0, 0, 0
      |];

% Weights matrix (edge weights)
% Weights = [|0, 0, 4, 0, 0, 2, 2, 0, 0, 5, 4, 1, 0, 0
%           |0, 0, 0, 0, 0, 0, 4, 0, 0, 0, 0, 0, 0, 4
%           |4, 0, 0, 0, 0, 0, 0, 0, 0, 0, 0, 0, 0, 0
%           |0, 0, 0, 0, 0, 0, 5, 0, 0, 0, 0, 0, 1, 0
%           |0, 0, 0, 0, 0, 0, 0, 0, 4, 1, 2, 0, 0, 0
%           |2, 0, 0, 0, 0, 0, 0, 0, 0, 0, 0, 0, 0, 0
%           |2, 4, 0, 5, 0, 0, 0, 0, 0, 0, 0, 0, 0, 5
%           |0, 0, 0, 0, 0, 0, 0, 0, 0, 0, 0, 0, 4, 0
%           |0, 0, 0, 0, 4, 0, 0, 0, 0, 5, 0, 0, 0, 0
%           |5, 0, 0, 0, 1, 0, 0, 0, 5, 0, 0, 0, 0, 0
%           |4, 0, 0, 0, 2, 0, 0, 0, 0, 0, 0, 0, 0, 2
%           |1, 0, 0, 0, 0, 0, 0, 0, 0, 0, 0, 0, 0, 0
%           |0, 0, 0, 1, 0, 0, 0, 4, 0, 0, 0, 0, 0, 0
%           |0, 4, 0, 0, 0, 0, 5, 0, 0, 0, 2, 0, 0, 0
%           |];

% Distance matrix
Dist = [|0, 6, 4, 7, 6, 2, 2, 12, 10, 5, 4, 1, 8, 6
      |6, 0, 10, 9, 8, 8, 4, 14, 12, 9, 6, 7, 10, 4
      |4, 10, 0, 11, 10, 6, 6, 16, 14, 9, 8, 5, 12, 10
      |7, 9, 11, 0, 13, 9, 5, 5, 17, 12, 11, 8, 1, 10
      |6, 8, 10, 13, 0, 8, 8, 18, 4, 1, 2, 7, 14, 4
      |2, 8, 6, 9, 8, 0, 4, 14, 12, 7, 6, 3, 10, 8
      |2, 4, 6, 5, 8, 4, 0, 10, 12, 7, 6, 3, 6, 5
      |12, 14, 16, 5, 18, 14, 10, 0, 22, 17, 16, 13, 4, 15
      |10, 12, 14, 17, 4, 12, 12, 22, 0, 5, 6, 11, 18, 8
      |5, 9, 9, 12, 1, 7, 7, 17, 5, 0, 3, 6, 13, 5
      |4, 6, 8, 11, 2, 6, 6, 16, 6, 3, 0, 5, 12, 2
      |1, 7, 5, 8, 7, 3, 3, 13, 11, 6, 5, 0, 9, 7
      |8, 10, 12, 1, 14, 10, 6, 4, 18, 13, 12, 9, 0, 11
      |6, 4, 10, 10, 4, 8, 5, 15, 8, 5, 2, 7, 11, 0
      |];

% Initial object distribution
S_init = [0, 0, 0, 2, 0, 0, 0, 0, 0, 1, 0, 0, 0, 0];

% Target nodes (1 if target, 0 otherwise)
T = [0, 0, 0, 0, 1, 1, 0, 0, 0, 0, 1, 0, 0, 0];

% Initial truck position (1-based indexing)
u = 8;

% --- DEBUG TRACE ---
% --- GENERATION TRACE (Backwards from Target) ---
% Initial distribution (all on targets): [0, 0, 0, 0, 1, 1, 0, 0, 0, 0, 1, 0, 0, 0]
% Step 1: Selected target node 5 (has 1 objects)
% Step 1: Moved object 5 -> 10
% Step 1: Distribution: [0, 0, 0, 0, 0, 1, 0, 0, 0, 1, 1, 0, 0, 0]
% Step 2: Selected target node 6 (has 1 objects)
% Step 2: Moved object 6 -> 1
% Step 2: Distribution: [1, 0, 0, 0, 0, 0, 0, 0, 0, 1, 1, 0, 0, 0]
% Step 3: Selected target node 11 (has 1 objects)
% Step 3: Moved object 11 -> 14
% Step 3: Distribution: [1, 0, 0, 0, 0, 0, 0, 0, 0, 1, 0, 0, 0, 1]
% Step 4: Selected non-target node 1 (has 1 objects)
% Step 4: Avoiding backtrack to node 6
% Step 4: Moved object 1 -> 12
% Step 4: Distribution: [0, 0, 0, 0, 0, 0, 0, 0, 0, 1, 0, 1, 0, 1]
% Step 5: Selected non-target node 14 (has 1 objects)
% Step 5: Avoiding backtrack to node 11
% Step 5: Moved object 14 -> 7
% Step 5: Distribution: [0, 0, 0, 0, 0, 0, 1, 0, 0, 1, 0, 1, 0, 0]
% Step 6: Selected non-target node 12 (has 1 objects)
% Step 6: Moved object 12 -> 1
% Step 6: Distribution: [1, 0, 0, 0, 0, 0, 1, 0, 0, 1, 0, 0, 0, 0]
% Step 7: Selected non-target node 1 (has 1 objects)
% Step 7: Avoiding backtrack to node 12
% Step 7: Moved object 1 -> 7
% Step 7: Distribution: [0, 0, 0, 0, 0, 0, 2, 0, 0, 1, 0, 0, 0, 0]
% Step 8: Selected non-target node 7 (has 2 objects)
% Step 8: Avoiding backtrack to node 1
% Step 8: Moved object 7 -> 14
% Step 8: Distribution: [0, 0, 0, 0, 0, 0, 1, 0, 0, 1, 0, 0, 0, 1]
% Step 9: Selected non-target node 10 (has 1 objects)
% Step 9: Avoiding backtrack to node 5
% Step 9: Moved object 10 -> 9
% Step 9: Distribution: [0, 0, 0, 0, 0, 0, 1, 0, 1, 0, 0, 0, 0, 1]
% Step 10: Selected non-target node 9 (has 1 objects)
% Step 10: Moved object 9 -> 10
% Step 10: Distribution: [0, 0, 0, 0, 0, 0, 1, 0, 0, 1, 0, 0, 0, 1]
% Step 11: Selected non-target node 14 (has 1 objects)
% Step 11: Avoiding backtrack to node 7
% Step 11: Moved object 14 -> 2
% Step 11: Distribution: [0, 1, 0, 0, 0, 0, 1, 0, 0, 1, 0, 0, 0, 0]
% Step 12: Selected non-target node 7 (has 1 objects)
% Step 12: Avoiding backtrack to node 1
% Step 12: Moved object 7 -> 4
% Step 12: Distribution: [0, 1, 0, 1, 0, 0, 0, 0, 0, 1, 0, 0, 0, 0]
% Step 13: Selected non-target node 2 (has 1 objects)
% Step 13: Avoiding backtrack to node 14
% Step 13: Moved object 2 -> 7
% Step 13: Distribution: [0, 0, 0, 1, 0, 0, 1, 0, 0, 1, 0, 0, 0, 0]
% Step 14: Selected non-target node 7 (has 1 objects)
% Step 14: Avoiding backtrack to node 2
% Step 14: Moved object 7 -> 4
% Step 14: Distribution: [0, 0, 0, 2, 0, 0, 0, 0, 0, 1, 0, 0, 0, 0]
% Truck starting position: 8
