% instance_n26_c1_k5_i85.dzn
% Generated instance for the Trucks problem
% N=26, h=6, k=5

% Number of nodes
N = 26;

% Number of objects
h = 6;

% Maximum plan length
%k = 5;

% Adjacency matrix (0-based internal, will be converted to 1-based)
Adj = [|0, 0, 1, 0, 0, 0, 0, 0, 1, 0, 0, 0, 0, 0, 0, 0, 0, 1, 0, 0, 0, 0, 1, 0, 0, 0
      |0, 0, 0, 0, 1, 0, 0, 0, 0, 0, 0, 0, 0, 0, 1, 0, 0, 0, 1, 1, 0, 0, 0, 0, 0, 0
      |1, 0, 0, 0, 0, 0, 0, 0, 0, 0, 0, 0, 0, 0, 0, 0, 0, 0, 0, 0, 0, 0, 0, 0, 0, 0
      |0, 0, 0, 0, 0, 0, 0, 0, 0, 1, 0, 0, 0, 0, 0, 0, 0, 0, 0, 1, 1, 0, 0, 0, 1, 0
      |0, 1, 0, 0, 0, 0, 0, 0, 0, 0, 0, 0, 0, 0, 0, 0, 0, 0, 0, 0, 0, 0, 0, 0, 0, 0
      |0, 0, 0, 0, 0, 0, 1, 0, 0, 0, 1, 0, 0, 1, 0, 0, 0, 0, 0, 0, 0, 0, 1, 0, 0, 0
      |0, 0, 0, 0, 0, 1, 0, 0, 0, 0, 0, 0, 1, 0, 0, 0, 0, 0, 0, 0, 0, 0, 0, 0, 0, 0
      |0, 0, 0, 0, 0, 0, 0, 0, 1, 0, 0, 0, 0, 0, 0, 0, 0, 0, 0, 0, 0, 0, 0, 0, 0, 0
      |1, 0, 0, 0, 0, 0, 0, 1, 0, 1, 0, 0, 0, 1, 0, 1, 1, 0, 0, 1, 0, 0, 0, 0, 0, 0
      |0, 0, 0, 1, 0, 0, 0, 0, 1, 0, 0, 0, 0, 0, 0, 1, 0, 0, 0, 0, 0, 0, 0, 0, 0, 0
      |0, 0, 0, 0, 0, 1, 0, 0, 0, 0, 0, 1, 0, 0, 0, 0, 0, 0, 1, 0, 1, 0, 0, 0, 0, 0
      |0, 0, 0, 0, 0, 0, 0, 0, 0, 0, 1, 0, 0, 0, 0, 0, 0, 0, 1, 0, 0, 0, 0, 1, 0, 0
      |0, 0, 0, 0, 0, 0, 1, 0, 0, 0, 0, 0, 0, 0, 0, 0, 1, 0, 0, 0, 1, 0, 0, 0, 0, 0
      |0, 0, 0, 0, 0, 1, 0, 0, 1, 0, 0, 0, 0, 0, 0, 0, 0, 0, 0, 0, 0, 0, 0, 0, 0, 0
      |0, 1, 0, 0, 0, 0, 0, 0, 0, 0, 0, 0, 0, 0, 0, 0, 0, 0, 0, 0, 0, 0, 0, 0, 0, 0
      |0, 0, 0, 0, 0, 0, 0, 0, 1, 1, 0, 0, 0, 0, 0, 0, 0, 0, 0, 0, 0, 0, 0, 0, 0, 0
      |0, 0, 0, 0, 0, 0, 0, 0, 1, 0, 0, 0, 1, 0, 0, 0, 0, 0, 0, 0, 0, 0, 0, 0, 0, 1
      |1, 0, 0, 0, 0, 0, 0, 0, 0, 0, 0, 0, 0, 0, 0, 0, 0, 0, 0, 0, 0, 0, 0, 0, 0, 1
      |0, 1, 0, 0, 0, 0, 0, 0, 0, 0, 1, 1, 0, 0, 0, 0, 0, 0, 0, 0, 0, 0, 0, 0, 0, 0
      |0, 1, 0, 1, 0, 0, 0, 0, 1, 0, 0, 0, 0, 0, 0, 0, 0, 0, 0, 0, 0, 1, 0, 0, 0, 0
      |0, 0, 0, 1, 0, 0, 0, 0, 0, 0, 1, 0, 1, 0, 0, 0, 0, 0, 0, 0, 0, 0, 0, 0, 0, 0
      |0, 0, 0, 0, 0, 0, 0, 0, 0, 0, 0, 0, 0, 0, 0, 0, 0, 0, 0, 1, 0, 0, 0, 0, 0, 0
      |1, 0, 0, 0, 0, 1, 0, 0, 0, 0, 0, 0, 0, 0, 0, 0, 0, 0, 0, 0, 0, 0, 0, 0, 0, 0
      |0, 0, 0, 0, 0, 0, 0, 0, 0, 0, 0, 1, 0, 0, 0, 0, 0, 0, 0, 0, 0, 0, 0, 0, 0, 0
      |0, 0, 0, 1, 0, 0, 0, 0, 0, 0, 0, 0, 0, 0, 0, 0, 0, 0, 0, 0, 0, 0, 0, 0, 0, 0
      |0, 0, 0, 0, 0, 0, 0, 0, 0, 0, 0, 0, 0, 0, 0, 0, 1, 1, 0, 0, 0, 0, 0, 0, 0, 0
      |];

% Weights matrix (edge weights)
% Weights = [|0, 0, 3, 0, 0, 0, 0, 0, 2, 0, 0, 0, 0, 0, 0, 0, 0, 1, 0, 0, 0, 0, 3, 0, 0, 0
%           |0, 0, 0, 0, 4, 0, 0, 0, 0, 0, 0, 0, 0, 0, 3, 0, 0, 0, 1, 5, 0, 0, 0, 0, 0, 0
%           |3, 0, 0, 0, 0, 0, 0, 0, 0, 0, 0, 0, 0, 0, 0, 0, 0, 0, 0, 0, 0, 0, 0, 0, 0, 0
%           |0, 0, 0, 0, 0, 0, 0, 0, 0, 1, 0, 0, 0, 0, 0, 0, 0, 0, 0, 5, 2, 0, 0, 0, 5, 0
%           |0, 4, 0, 0, 0, 0, 0, 0, 0, 0, 0, 0, 0, 0, 0, 0, 0, 0, 0, 0, 0, 0, 0, 0, 0, 0
%           |0, 0, 0, 0, 0, 0, 2, 0, 0, 0, 2, 0, 0, 3, 0, 0, 0, 0, 0, 0, 0, 0, 5, 0, 0, 0
%           |0, 0, 0, 0, 0, 2, 0, 0, 0, 0, 0, 0, 5, 0, 0, 0, 0, 0, 0, 0, 0, 0, 0, 0, 0, 0
%           |0, 0, 0, 0, 0, 0, 0, 0, 2, 0, 0, 0, 0, 0, 0, 0, 0, 0, 0, 0, 0, 0, 0, 0, 0, 0
%           |2, 0, 0, 0, 0, 0, 0, 2, 0, 4, 0, 0, 0, 2, 0, 1, 2, 0, 0, 2, 0, 0, 0, 0, 0, 0
%           |0, 0, 0, 1, 0, 0, 0, 0, 4, 0, 0, 0, 0, 0, 0, 4, 0, 0, 0, 0, 0, 0, 0, 0, 0, 0
%           |0, 0, 0, 0, 0, 2, 0, 0, 0, 0, 0, 4, 0, 0, 0, 0, 0, 0, 3, 0, 1, 0, 0, 0, 0, 0
%           |0, 0, 0, 0, 0, 0, 0, 0, 0, 0, 4, 0, 0, 0, 0, 0, 0, 0, 5, 0, 0, 0, 0, 5, 0, 0
%           |0, 0, 0, 0, 0, 0, 5, 0, 0, 0, 0, 0, 0, 0, 0, 0, 2, 0, 0, 0, 4, 0, 0, 0, 0, 0
%           |0, 0, 0, 0, 0, 3, 0, 0, 2, 0, 0, 0, 0, 0, 0, 0, 0, 0, 0, 0, 0, 0, 0, 0, 0, 0
%           |0, 3, 0, 0, 0, 0, 0, 0, 0, 0, 0, 0, 0, 0, 0, 0, 0, 0, 0, 0, 0, 0, 0, 0, 0, 0
%           |0, 0, 0, 0, 0, 0, 0, 0, 1, 4, 0, 0, 0, 0, 0, 0, 0, 0, 0, 0, 0, 0, 0, 0, 0, 0
%           |0, 0, 0, 0, 0, 0, 0, 0, 2, 0, 0, 0, 2, 0, 0, 0, 0, 0, 0, 0, 0, 0, 0, 0, 0, 2
%           |1, 0, 0, 0, 0, 0, 0, 0, 0, 0, 0, 0, 0, 0, 0, 0, 0, 0, 0, 0, 0, 0, 0, 0, 0, 1
%           |0, 1, 0, 0, 0, 0, 0, 0, 0, 0, 3, 5, 0, 0, 0, 0, 0, 0, 0, 0, 0, 0, 0, 0, 0, 0
%           |0, 5, 0, 5, 0, 0, 0, 0, 2, 0, 0, 0, 0, 0, 0, 0, 0, 0, 0, 0, 0, 5, 0, 0, 0, 0
%           |0, 0, 0, 2, 0, 0, 0, 0, 0, 0, 1, 0, 4, 0, 0, 0, 0, 0, 0, 0, 0, 0, 0, 0, 0, 0
%           |0, 0, 0, 0, 0, 0, 0, 0, 0, 0, 0, 0, 0, 0, 0, 0, 0, 0, 0, 5, 0, 0, 0, 0, 0, 0
%           |3, 0, 0, 0, 0, 5, 0, 0, 0, 0, 0, 0, 0, 0, 0, 0, 0, 0, 0, 0, 0, 0, 0, 0, 0, 0
%           |0, 0, 0, 0, 0, 0, 0, 0, 0, 0, 0, 5, 0, 0, 0, 0, 0, 0, 0, 0, 0, 0, 0, 0, 0, 0
%           |0, 0, 0, 5, 0, 0, 0, 0, 0, 0, 0, 0, 0, 0, 0, 0, 0, 0, 0, 0, 0, 0, 0, 0, 0, 0
%           |0, 0, 0, 0, 0, 0, 0, 0, 0, 0, 0, 0, 0, 0, 0, 0, 2, 1, 0, 0, 0, 0, 0, 0, 0, 0
%           |];

% Distance matrix
Dist = [|0, 9, 3, 7, 13, 7, 9, 4, 2, 6, 9, 13, 6, 4, 12, 3, 4, 1, 10, 4, 9, 9, 3, 18, 12, 2
      |9, 0, 12, 7, 4, 6, 8, 9, 7, 8, 4, 6, 9, 9, 3, 8, 9, 10, 1, 5, 5, 10, 11, 11, 12, 11
      |3, 12, 0, 10, 16, 10, 12, 7, 5, 9, 12, 16, 9, 7, 15, 6, 7, 4, 13, 7, 12, 12, 6, 21, 15, 5
      |7, 7, 10, 0, 11, 5, 7, 7, 5, 1, 3, 7, 6, 7, 10, 5, 7, 8, 6, 5, 2, 10, 10, 12, 5, 9
      |13, 4, 16, 11, 0, 10, 12, 13, 11, 12, 8, 10, 13, 13, 7, 12, 13, 14, 5, 9, 9, 14, 15, 15, 16, 15
      |7, 6, 10, 5, 10, 0, 2, 7, 5, 6, 2, 6, 7, 3, 9, 6, 7, 8, 5, 7, 3, 12, 5, 11, 10, 9
      |9, 8, 12, 7, 12, 2, 0, 9, 7, 8, 4, 8, 5, 5, 11, 8, 7, 10, 7, 9, 5, 14, 7, 13, 12, 9
      |4, 9, 7, 7, 13, 7, 9, 0, 2, 6, 9, 13, 6, 4, 12, 3, 4, 5, 10, 4, 9, 9, 7, 18, 12, 6
      |2, 7, 5, 5, 11, 5, 7, 2, 0, 4, 7, 11, 4, 2, 10, 1, 2, 3, 8, 2, 7, 7, 5, 16, 10, 4
      |6, 8, 9, 1, 12, 6, 8, 6, 4, 0, 4, 8, 7, 6, 11, 4, 6, 7, 7, 6, 3, 11, 9, 13, 6, 8
      |9, 4, 12, 3, 8, 2, 4, 9, 7, 4, 0, 4, 5, 5, 7, 8, 7, 10, 3, 8, 1, 13, 7, 9, 8, 9
      |13, 6, 16, 7, 10, 6, 8, 13, 11, 8, 4, 0, 9, 9, 9, 12, 11, 14, 5, 11, 5, 16, 11, 5, 12, 13
      |6, 9, 9, 6, 13, 7, 5, 6, 4, 7, 5, 9, 0, 6, 12, 5, 2, 5, 8, 6, 4, 11, 9, 14, 11, 4
      |4, 9, 7, 7, 13, 3, 5, 4, 2, 6, 5, 9, 6, 0, 12, 3, 4, 5, 8, 4, 6, 9, 7, 14, 12, 6
      |12, 3, 15, 10, 7, 9, 11, 12, 10, 11, 7, 9, 12, 12, 0, 11, 12, 13, 4, 8, 8, 13, 14, 14, 15, 14
      |3, 8, 6, 5, 12, 6, 8, 3, 1, 4, 8, 12, 5, 3, 11, 0, 3, 4, 9, 3, 7, 8, 6, 17, 10, 5
      |4, 9, 7, 7, 13, 7, 7, 4, 2, 6, 7, 11, 2, 4, 12, 3, 0, 3, 10, 4, 6, 9, 7, 16, 12, 2
      |1, 10, 4, 8, 14, 8, 10, 5, 3, 7, 10, 14, 5, 5, 13, 4, 3, 0, 11, 5, 9, 10, 4, 19, 13, 1
      |10, 1, 13, 6, 5, 5, 7, 10, 8, 7, 3, 5, 8, 8, 4, 9, 10, 11, 0, 6, 4, 11, 10, 10, 11, 12
      |4, 5, 7, 5, 9, 7, 9, 4, 2, 6, 8, 11, 6, 4, 8, 3, 4, 5, 6, 0, 7, 5, 7, 16, 10, 6
      |9, 5, 12, 2, 9, 3, 5, 9, 7, 3, 1, 5, 4, 6, 8, 7, 6, 9, 4, 7, 0, 12, 8, 10, 7, 8
      |9, 10, 12, 10, 14, 12, 14, 9, 7, 11, 13, 16, 11, 9, 13, 8, 9, 10, 11, 5, 12, 0, 12, 21, 15, 11
      |3, 11, 6, 10, 15, 5, 7, 7, 5, 9, 7, 11, 9, 7, 14, 6, 7, 4, 10, 7, 8, 12, 0, 16, 15, 5
      |18, 11, 21, 12, 15, 11, 13, 18, 16, 13, 9, 5, 14, 14, 14, 17, 16, 19, 10, 16, 10, 21, 16, 0, 17, 18
      |12, 12, 15, 5, 16, 10, 12, 12, 10, 6, 8, 12, 11, 12, 15, 10, 12, 13, 11, 10, 7, 15, 15, 17, 0, 14
      |2, 11, 5, 9, 15, 9, 9, 6, 4, 8, 9, 13, 4, 6, 14, 5, 2, 1, 12, 6, 8, 11, 5, 18, 14, 0
      |];

% Initial object distribution
S_init = [0, 2, 0, 1, 0, 0, 1, 0, 0, 1, 0, 0, 0, 0, 0, 0, 0, 1, 0, 0, 0, 0, 0, 0, 0, 0];

% Target nodes (1 if target, 0 otherwise)
T = [1, 0, 0, 1, 1, 0, 0, 0, 0, 0, 0, 0, 1, 0, 0, 1, 0, 0, 0, 0, 0, 0, 0, 0, 0, 0];

% Initial truck position (1-based indexing)
u = 16;

% --- DEBUG TRACE ---
% --- GENERATION TRACE (Backwards from Target) ---
% Initial distribution (all on targets): [1, 0, 0, 1, 2, 0, 0, 0, 0, 0, 0, 0, 1, 0, 0, 1, 0, 0, 0, 0, 0, 0, 0, 0, 0, 0]
% Step 1: Selected target node 5 (has 2 objects)
% Step 1: Moved object 5 -> 2
% Step 1: Distribution: [1, 1, 0, 1, 1, 0, 0, 0, 0, 0, 0, 0, 1, 0, 0, 1, 0, 0, 0, 0, 0, 0, 0, 0, 0, 0]
% Step 2: Selected target node 1 (has 1 objects)
% Step 2: Moved object 1 -> 18
% Step 2: Distribution: [0, 1, 0, 1, 1, 0, 0, 0, 0, 0, 0, 0, 1, 0, 0, 1, 0, 1, 0, 0, 0, 0, 0, 0, 0, 0]
% Step 3: Selected target node 16 (has 1 objects)
% Step 3: Moved object 16 -> 10
% Step 3: Distribution: [0, 1, 0, 1, 1, 0, 0, 0, 0, 1, 0, 0, 1, 0, 0, 0, 0, 1, 0, 0, 0, 0, 0, 0, 0, 0]
% Step 4: Selected target node 13 (has 1 objects)
% Step 4: Moved object 13 -> 7
% Step 4: Distribution: [0, 1, 0, 1, 1, 0, 1, 0, 0, 1, 0, 0, 0, 0, 0, 0, 0, 1, 0, 0, 0, 0, 0, 0, 0, 0]
% Step 5: Selected target node 5 (has 1 objects)
% Step 5: Moved object 5 -> 2
% Step 5: Distribution: [0, 2, 0, 1, 0, 0, 1, 0, 0, 1, 0, 0, 0, 0, 0, 0, 0, 1, 0, 0, 0, 0, 0, 0, 0, 0]
% Truck starting position: 16
