% instance_n14_c3_k5_i35.dzn
% Generated instance for the Trucks problem
% N=14, h=3, k=5

% Number of nodes
N = 14;

% Number of objects
h = 3;

% Maximum plan length
%k = 5;

% Adjacency matrix (0-based internal, will be converted to 1-based)
Adj = [|0, 1, 0, 1, 0, 1, 0, 1, 1, 1, 1, 1, 0, 0
      |1, 0, 0, 0, 0, 0, 0, 0, 0, 0, 0, 0, 0, 0
      |0, 0, 0, 0, 0, 0, 1, 0, 0, 0, 0, 0, 0, 1
      |1, 0, 0, 0, 0, 0, 1, 0, 0, 0, 0, 0, 0, 0
      |0, 0, 0, 0, 0, 1, 0, 0, 0, 0, 0, 0, 0, 0
      |1, 0, 0, 0, 1, 0, 0, 0, 1, 0, 0, 0, 1, 0
      |0, 0, 1, 1, 0, 0, 0, 0, 0, 0, 0, 0, 0, 0
      |1, 0, 0, 0, 0, 0, 0, 0, 0, 0, 0, 0, 0, 1
      |1, 0, 0, 0, 0, 1, 0, 0, 0, 0, 0, 0, 0, 0
      |1, 0, 0, 0, 0, 0, 0, 0, 0, 0, 0, 0, 0, 1
      |1, 0, 0, 0, 0, 0, 0, 0, 0, 0, 0, 0, 0, 0
      |1, 0, 0, 0, 0, 0, 0, 0, 0, 0, 0, 0, 0, 0
      |0, 0, 0, 0, 0, 1, 0, 0, 0, 0, 0, 0, 0, 0
      |0, 0, 1, 0, 0, 0, 0, 1, 0, 1, 0, 0, 0, 0
      |];

% Weights matrix (edge weights)
% Weights = [|0, 3, 0, 1, 0, 1, 0, 5, 3, 5, 4, 2, 0, 0
%           |3, 0, 0, 0, 0, 0, 0, 0, 0, 0, 0, 0, 0, 0
%           |0, 0, 0, 0, 0, 0, 5, 0, 0, 0, 0, 0, 0, 2
%           |1, 0, 0, 0, 0, 0, 5, 0, 0, 0, 0, 0, 0, 0
%           |0, 0, 0, 0, 0, 5, 0, 0, 0, 0, 0, 0, 0, 0
%           |1, 0, 0, 0, 5, 0, 0, 0, 3, 0, 0, 0, 2, 0
%           |0, 0, 5, 5, 0, 0, 0, 0, 0, 0, 0, 0, 0, 0
%           |5, 0, 0, 0, 0, 0, 0, 0, 0, 0, 0, 0, 0, 4
%           |3, 0, 0, 0, 0, 3, 0, 0, 0, 0, 0, 0, 0, 0
%           |5, 0, 0, 0, 0, 0, 0, 0, 0, 0, 0, 0, 0, 2
%           |4, 0, 0, 0, 0, 0, 0, 0, 0, 0, 0, 0, 0, 0
%           |2, 0, 0, 0, 0, 0, 0, 0, 0, 0, 0, 0, 0, 0
%           |0, 0, 0, 0, 0, 2, 0, 0, 0, 0, 0, 0, 0, 0
%           |0, 0, 2, 0, 0, 0, 0, 4, 0, 2, 0, 0, 0, 0
%           |];

% Distance matrix
Dist = [|0, 3, 9, 1, 6, 1, 6, 5, 3, 5, 4, 2, 3, 7
      |3, 0, 12, 4, 9, 4, 9, 8, 6, 8, 7, 5, 6, 10
      |9, 12, 0, 10, 15, 10, 5, 6, 12, 4, 13, 11, 12, 2
      |1, 4, 10, 0, 7, 2, 5, 6, 4, 6, 5, 3, 4, 8
      |6, 9, 15, 7, 0, 5, 12, 11, 8, 11, 10, 8, 7, 13
      |1, 4, 10, 2, 5, 0, 7, 6, 3, 6, 5, 3, 2, 8
      |6, 9, 5, 5, 12, 7, 0, 11, 9, 9, 10, 8, 9, 7
      |5, 8, 6, 6, 11, 6, 11, 0, 8, 6, 9, 7, 8, 4
      |3, 6, 12, 4, 8, 3, 9, 8, 0, 8, 7, 5, 5, 10
      |5, 8, 4, 6, 11, 6, 9, 6, 8, 0, 9, 7, 8, 2
      |4, 7, 13, 5, 10, 5, 10, 9, 7, 9, 0, 6, 7, 11
      |2, 5, 11, 3, 8, 3, 8, 7, 5, 7, 6, 0, 5, 9
      |3, 6, 12, 4, 7, 2, 9, 8, 5, 8, 7, 5, 0, 10
      |7, 10, 2, 8, 13, 8, 7, 4, 10, 2, 11, 9, 10, 0
      |];

% Initial object distribution
S_init = [1, 0, 0, 0, 0, 1, 0, 0, 1, 0, 0, 0, 0, 0];

% Target nodes (1 if target, 0 otherwise)
T = [0, 0, 0, 0, 0, 0, 0, 0, 0, 1, 1, 1, 0, 0];

% Initial truck position (1-based indexing)
u = 5;

% --- DEBUG TRACE ---
% --- GENERATION TRACE (Backwards from Target) ---
% Initial distribution (all on targets): [0, 0, 0, 0, 0, 0, 0, 0, 0, 1, 1, 1, 0, 0]
% Step 1: Selected target node 11 (has 1 objects)
% Step 1: Moved object 11 -> 1
% Step 1: Distribution: [1, 0, 0, 0, 0, 0, 0, 0, 0, 1, 0, 1, 0, 0]
% Step 2: Selected target node 12 (has 1 objects)
% Step 2: Moved object 12 -> 1
% Step 2: Distribution: [2, 0, 0, 0, 0, 0, 0, 0, 0, 1, 0, 0, 0, 0]
% Step 3: Selected target node 10 (has 1 objects)
% Step 3: Moved object 10 -> 1
% Step 3: Distribution: [3, 0, 0, 0, 0, 0, 0, 0, 0, 0, 0, 0, 0, 0]
% Step 4: Selected non-target node 1 (has 3 objects)
% Step 4: Avoiding backtrack to node 10
% Step 4: Moved object 1 -> 9
% Step 4: Distribution: [2, 0, 0, 0, 0, 0, 0, 0, 1, 0, 0, 0, 0, 0]
% Step 5: Selected non-target node 1 (has 2 objects)
% Step 5: Avoiding backtrack to node 10
% Step 5: Moved object 1 -> 6
% Step 5: Distribution: [1, 0, 0, 0, 0, 1, 0, 0, 1, 0, 0, 0, 0, 0]
% Truck starting position: 5
