% instance_n18_c0_k11_i42.dzn
% Generated instance for the Trucks problem
% N=18, h=4, k=11

% Number of nodes
N = 18;

% Number of objects
h = 4;

% Maximum plan length
%k = 11;

% Adjacency matrix (0-based internal, will be converted to 1-based)
Adj = [|0, 0, 1, 0, 0, 1, 0, 0, 0, 0, 1, 0, 0, 1, 0, 1, 1, 0
      |0, 0, 0, 0, 0, 0, 1, 1, 0, 0, 0, 0, 0, 0, 0, 0, 0, 1
      |1, 0, 0, 0, 0, 0, 0, 0, 1, 1, 0, 0, 0, 0, 0, 0, 0, 0
      |0, 0, 0, 0, 1, 0, 0, 0, 0, 0, 0, 1, 0, 0, 0, 0, 0, 0
      |0, 0, 0, 1, 0, 0, 0, 0, 0, 0, 0, 1, 0, 0, 0, 0, 0, 0
      |1, 0, 0, 0, 0, 0, 0, 0, 0, 0, 0, 0, 1, 0, 0, 0, 1, 0
      |0, 1, 0, 0, 0, 0, 0, 0, 0, 0, 0, 1, 0, 0, 0, 0, 0, 0
      |0, 1, 0, 0, 0, 0, 0, 0, 0, 0, 0, 1, 0, 0, 0, 0, 0, 0
      |0, 0, 1, 0, 0, 0, 0, 0, 0, 0, 0, 0, 0, 0, 0, 0, 0, 0
      |0, 0, 1, 0, 0, 0, 0, 0, 0, 0, 0, 0, 0, 0, 0, 0, 0, 0
      |1, 0, 0, 0, 0, 0, 0, 0, 0, 0, 0, 0, 0, 0, 0, 0, 0, 0
      |0, 0, 0, 1, 1, 0, 1, 1, 0, 0, 0, 0, 0, 0, 0, 0, 1, 0
      |0, 0, 0, 0, 0, 1, 0, 0, 0, 0, 0, 0, 0, 1, 0, 0, 0, 0
      |1, 0, 0, 0, 0, 0, 0, 0, 0, 0, 0, 0, 1, 0, 0, 0, 0, 0
      |0, 0, 0, 0, 0, 0, 0, 0, 0, 0, 0, 0, 0, 0, 0, 0, 1, 1
      |1, 0, 0, 0, 0, 0, 0, 0, 0, 0, 0, 0, 0, 0, 0, 0, 0, 0
      |1, 0, 0, 0, 0, 1, 0, 0, 0, 0, 0, 1, 0, 0, 1, 0, 0, 0
      |0, 1, 0, 0, 0, 0, 0, 0, 0, 0, 0, 0, 0, 0, 1, 0, 0, 0
      |];

% Weights matrix (edge weights)
% Weights = [|0, 0, 3, 0, 0, 1, 0, 0, 0, 0, 3, 0, 0, 4, 0, 4, 1, 0
%           |0, 0, 0, 0, 0, 0, 4, 1, 0, 0, 0, 0, 0, 0, 0, 0, 0, 2
%           |3, 0, 0, 0, 0, 0, 0, 0, 5, 2, 0, 0, 0, 0, 0, 0, 0, 0
%           |0, 0, 0, 0, 1, 0, 0, 0, 0, 0, 0, 5, 0, 0, 0, 0, 0, 0
%           |0, 0, 0, 1, 0, 0, 0, 0, 0, 0, 0, 1, 0, 0, 0, 0, 0, 0
%           |1, 0, 0, 0, 0, 0, 0, 0, 0, 0, 0, 0, 1, 0, 0, 0, 3, 0
%           |0, 4, 0, 0, 0, 0, 0, 0, 0, 0, 0, 3, 0, 0, 0, 0, 0, 0
%           |0, 1, 0, 0, 0, 0, 0, 0, 0, 0, 0, 2, 0, 0, 0, 0, 0, 0
%           |0, 0, 5, 0, 0, 0, 0, 0, 0, 0, 0, 0, 0, 0, 0, 0, 0, 0
%           |0, 0, 2, 0, 0, 0, 0, 0, 0, 0, 0, 0, 0, 0, 0, 0, 0, 0
%           |3, 0, 0, 0, 0, 0, 0, 0, 0, 0, 0, 0, 0, 0, 0, 0, 0, 0
%           |0, 0, 0, 5, 1, 0, 3, 2, 0, 0, 0, 0, 0, 0, 0, 0, 2, 0
%           |0, 0, 0, 0, 0, 1, 0, 0, 0, 0, 0, 0, 0, 1, 0, 0, 0, 0
%           |4, 0, 0, 0, 0, 0, 0, 0, 0, 0, 0, 0, 1, 0, 0, 0, 0, 0
%           |0, 0, 0, 0, 0, 0, 0, 0, 0, 0, 0, 0, 0, 0, 0, 0, 4, 3
%           |4, 0, 0, 0, 0, 0, 0, 0, 0, 0, 0, 0, 0, 0, 0, 0, 0, 0
%           |1, 0, 0, 0, 0, 3, 0, 0, 0, 0, 0, 2, 0, 0, 4, 0, 0, 0
%           |0, 2, 0, 0, 0, 0, 0, 0, 0, 0, 0, 0, 0, 0, 3, 0, 0, 0
%           |];

% Distance matrix
Dist = [|0, 6, 3, 5, 4, 1, 6, 5, 8, 5, 3, 3, 2, 3, 5, 4, 1, 8
      |6, 0, 9, 5, 4, 7, 4, 1, 14, 11, 9, 3, 8, 9, 5, 10, 5, 2
      |3, 9, 0, 8, 7, 4, 9, 8, 5, 2, 6, 6, 5, 6, 8, 7, 4, 11
      |5, 5, 8, 0, 1, 6, 5, 4, 13, 10, 8, 2, 7, 8, 8, 9, 4, 7
      |4, 4, 7, 1, 0, 5, 4, 3, 12, 9, 7, 1, 6, 7, 7, 8, 3, 6
      |1, 7, 4, 6, 5, 0, 7, 6, 9, 6, 4, 4, 1, 2, 6, 5, 2, 9
      |6, 4, 9, 5, 4, 7, 0, 5, 14, 11, 9, 3, 8, 9, 9, 10, 5, 6
      |5, 1, 8, 4, 3, 6, 5, 0, 13, 10, 8, 2, 7, 8, 6, 9, 4, 3
      |8, 14, 5, 13, 12, 9, 14, 13, 0, 7, 11, 11, 10, 11, 13, 12, 9, 16
      |5, 11, 2, 10, 9, 6, 11, 10, 7, 0, 8, 8, 7, 8, 10, 9, 6, 13
      |3, 9, 6, 8, 7, 4, 9, 8, 11, 8, 0, 6, 5, 6, 8, 7, 4, 11
      |3, 3, 6, 2, 1, 4, 3, 2, 11, 8, 6, 0, 5, 6, 6, 7, 2, 5
      |2, 8, 5, 7, 6, 1, 8, 7, 10, 7, 5, 5, 0, 1, 7, 6, 3, 10
      |3, 9, 6, 8, 7, 2, 9, 8, 11, 8, 6, 6, 1, 0, 8, 7, 4, 11
      |5, 5, 8, 8, 7, 6, 9, 6, 13, 10, 8, 6, 7, 8, 0, 9, 4, 3
      |4, 10, 7, 9, 8, 5, 10, 9, 12, 9, 7, 7, 6, 7, 9, 0, 5, 12
      |1, 5, 4, 4, 3, 2, 5, 4, 9, 6, 4, 2, 3, 4, 4, 5, 0, 7
      |8, 2, 11, 7, 6, 9, 6, 3, 16, 13, 11, 5, 10, 11, 3, 12, 7, 0
      |];

% Initial object distribution
S_init = [0, 0, 0, 0, 0, 0, 0, 1, 1, 0, 0, 2, 0, 0, 0, 0, 0, 0];

% Target nodes (1 if target, 0 otherwise)
T = [0, 1, 1, 0, 1, 0, 0, 0, 0, 0, 0, 0, 0, 0, 0, 0, 0, 0];

% Initial truck position (1-based indexing)
u = 8;

% --- DEBUG TRACE ---
% --- GENERATION TRACE (Backwards from Target) ---
% Initial distribution (all on targets): [0, 2, 1, 0, 1, 0, 0, 0, 0, 0, 0, 0, 0, 0, 0, 0, 0, 0]
% Step 1: Selected target node 3 (has 1 objects)
% Step 1: Moved object 3 -> 9
% Step 1: Distribution: [0, 2, 0, 0, 1, 0, 0, 0, 1, 0, 0, 0, 0, 0, 0, 0, 0, 0]
% Step 2: Selected target node 2 (has 2 objects)
% Step 2: Moved object 2 -> 7
% Step 2: Distribution: [0, 1, 0, 0, 1, 0, 1, 0, 1, 0, 0, 0, 0, 0, 0, 0, 0, 0]
% Step 3: Selected target node 5 (has 1 objects)
% Step 3: Moved object 5 -> 12
% Step 3: Distribution: [0, 1, 0, 0, 0, 0, 1, 0, 1, 0, 0, 1, 0, 0, 0, 0, 0, 0]
% Step 4: Selected target node 2 (has 1 objects)
% Step 4: Moved object 2 -> 7
% Step 4: Distribution: [0, 0, 0, 0, 0, 0, 2, 0, 1, 0, 0, 1, 0, 0, 0, 0, 0, 0]
% Step 5: Selected non-target node 9 (has 1 objects)
% Step 5: Selected non-target node 12 (has 1 objects)
% Step 5: Avoiding backtrack to node 5
% Step 5: Moved object 12 -> 4
% Step 5: Distribution: [0, 0, 0, 1, 0, 0, 2, 0, 1, 0, 0, 0, 0, 0, 0, 0, 0, 0]
% Step 6: Selected non-target node 9 (has 1 objects)
% Step 6: Selected non-target node 7 (has 2 objects)
% Step 6: Avoiding backtrack to node 2
% Step 6: Moved object 7 -> 12
% Step 6: Distribution: [0, 0, 0, 1, 0, 0, 1, 0, 1, 0, 0, 1, 0, 0, 0, 0, 0, 0]
% Step 7: Selected non-target node 12 (has 1 objects)
% Step 7: Avoiding backtrack to node 7
% Step 7: Moved object 12 -> 8
% Step 7: Distribution: [0, 0, 0, 1, 0, 0, 1, 1, 1, 0, 0, 0, 0, 0, 0, 0, 0, 0]
% Step 8: Selected non-target node 7 (has 1 objects)
% Step 8: Avoiding backtrack to node 2
% Step 8: Moved object 7 -> 12
% Step 8: Distribution: [0, 0, 0, 1, 0, 0, 0, 1, 1, 0, 0, 1, 0, 0, 0, 0, 0, 0]
% Step 9: Selected non-target node 9 (has 1 objects)
% Step 9: Selected non-target node 12 (has 1 objects)
% Step 9: Avoiding backtrack to node 7
% Step 9: Moved object 12 -> 4
% Step 9: Distribution: [0, 0, 0, 2, 0, 0, 0, 1, 1, 0, 0, 0, 0, 0, 0, 0, 0, 0]
% Step 10: Selected non-target node 4 (has 2 objects)
% Step 10: Moved object 4 -> 12
% Step 10: Distribution: [0, 0, 0, 1, 0, 0, 0, 1, 1, 0, 0, 1, 0, 0, 0, 0, 0, 0]
% Step 11: Selected non-target node 4 (has 1 objects)
% Step 11: Moved object 4 -> 12
% Step 11: Distribution: [0, 0, 0, 0, 0, 0, 0, 1, 1, 0, 0, 2, 0, 0, 0, 0, 0, 0]
% Truck starting position: 8
