% instance_n18_c0_k17_i44.dzn
% Generated instance for the Trucks problem
% N=18, h=4, k=17

% Number of nodes
N = 18;

% Number of objects
h = 4;

% Maximum plan length
%k = 17;

% Adjacency matrix (0-based internal, will be converted to 1-based)
Adj = [|0, 0, 0, 1, 1, 0, 0, 1, 0, 0, 0, 0, 0, 1, 0, 1, 1, 0
      |0, 0, 0, 0, 0, 0, 0, 0, 0, 0, 0, 0, 0, 0, 0, 1, 0, 0
      |0, 0, 0, 1, 1, 0, 0, 0, 1, 0, 0, 0, 0, 0, 1, 0, 0, 1
      |1, 0, 1, 0, 0, 1, 0, 0, 0, 0, 1, 0, 0, 0, 0, 0, 0, 0
      |1, 0, 1, 0, 0, 0, 0, 0, 0, 0, 0, 1, 0, 0, 0, 0, 0, 0
      |0, 0, 0, 1, 0, 0, 1, 0, 0, 0, 0, 0, 0, 0, 0, 0, 1, 0
      |0, 0, 0, 0, 0, 1, 0, 0, 0, 1, 0, 1, 0, 0, 0, 0, 0, 0
      |1, 0, 0, 0, 0, 0, 0, 0, 0, 0, 0, 0, 0, 0, 0, 0, 0, 0
      |0, 0, 1, 0, 0, 0, 0, 0, 0, 1, 0, 0, 0, 0, 0, 0, 1, 0
      |0, 0, 0, 0, 0, 0, 1, 0, 1, 0, 0, 0, 0, 0, 0, 0, 0, 0
      |0, 0, 0, 1, 0, 0, 0, 0, 0, 0, 0, 0, 0, 0, 0, 0, 0, 0
      |0, 0, 0, 0, 1, 0, 1, 0, 0, 0, 0, 0, 0, 1, 0, 0, 0, 0
      |0, 0, 0, 0, 0, 0, 0, 0, 0, 0, 0, 0, 0, 0, 0, 0, 1, 0
      |1, 0, 0, 0, 0, 0, 0, 0, 0, 0, 0, 1, 0, 0, 0, 0, 0, 0
      |0, 0, 1, 0, 0, 0, 0, 0, 0, 0, 0, 0, 0, 0, 0, 0, 1, 0
      |1, 1, 0, 0, 0, 0, 0, 0, 0, 0, 0, 0, 0, 0, 0, 0, 0, 0
      |1, 0, 0, 0, 0, 1, 0, 0, 1, 0, 0, 0, 1, 0, 1, 0, 0, 0
      |0, 0, 1, 0, 0, 0, 0, 0, 0, 0, 0, 0, 0, 0, 0, 0, 0, 0
      |];

% Weights matrix (edge weights)
% Weights = [|0, 0, 0, 3, 5, 0, 0, 3, 0, 0, 0, 0, 0, 4, 0, 5, 1, 0
%           |0, 0, 0, 0, 0, 0, 0, 0, 0, 0, 0, 0, 0, 0, 0, 2, 0, 0
%           |0, 0, 0, 3, 3, 0, 0, 0, 5, 0, 0, 0, 0, 0, 1, 0, 0, 4
%           |3, 0, 3, 0, 0, 5, 0, 0, 0, 0, 3, 0, 0, 0, 0, 0, 0, 0
%           |5, 0, 3, 0, 0, 0, 0, 0, 0, 0, 0, 5, 0, 0, 0, 0, 0, 0
%           |0, 0, 0, 5, 0, 0, 3, 0, 0, 0, 0, 0, 0, 0, 0, 0, 1, 0
%           |0, 0, 0, 0, 0, 3, 0, 0, 0, 1, 0, 2, 0, 0, 0, 0, 0, 0
%           |3, 0, 0, 0, 0, 0, 0, 0, 0, 0, 0, 0, 0, 0, 0, 0, 0, 0
%           |0, 0, 5, 0, 0, 0, 0, 0, 0, 5, 0, 0, 0, 0, 0, 0, 3, 0
%           |0, 0, 0, 0, 0, 0, 1, 0, 5, 0, 0, 0, 0, 0, 0, 0, 0, 0
%           |0, 0, 0, 3, 0, 0, 0, 0, 0, 0, 0, 0, 0, 0, 0, 0, 0, 0
%           |0, 0, 0, 0, 5, 0, 2, 0, 0, 0, 0, 0, 0, 5, 0, 0, 0, 0
%           |0, 0, 0, 0, 0, 0, 0, 0, 0, 0, 0, 0, 0, 0, 0, 0, 4, 0
%           |4, 0, 0, 0, 0, 0, 0, 0, 0, 0, 0, 5, 0, 0, 0, 0, 0, 0
%           |0, 0, 1, 0, 0, 0, 0, 0, 0, 0, 0, 0, 0, 0, 0, 0, 4, 0
%           |5, 2, 0, 0, 0, 0, 0, 0, 0, 0, 0, 0, 0, 0, 0, 0, 0, 0
%           |1, 0, 0, 0, 0, 1, 0, 0, 3, 0, 0, 0, 4, 0, 4, 0, 0, 0
%           |0, 0, 4, 0, 0, 0, 0, 0, 0, 0, 0, 0, 0, 0, 0, 0, 0, 0
%           |];

% Distance matrix
Dist = [|0, 7, 6, 3, 5, 2, 5, 3, 4, 6, 6, 7, 5, 4, 5, 5, 1, 10
      |7, 0, 13, 10, 12, 9, 12, 10, 11, 13, 13, 14, 12, 11, 12, 2, 8, 17
      |6, 13, 0, 3, 3, 6, 9, 9, 5, 10, 6, 8, 9, 10, 1, 11, 5, 4
      |3, 10, 3, 0, 6, 5, 8, 6, 7, 9, 3, 10, 8, 7, 4, 8, 4, 7
      |5, 12, 3, 6, 0, 7, 7, 8, 8, 8, 9, 5, 10, 9, 4, 10, 6, 7
      |2, 9, 6, 5, 7, 0, 3, 5, 4, 4, 8, 5, 5, 6, 5, 7, 1, 10
      |5, 12, 9, 8, 7, 3, 0, 8, 6, 1, 11, 2, 8, 7, 8, 10, 4, 13
      |3, 10, 9, 6, 8, 5, 8, 0, 7, 9, 9, 10, 8, 7, 8, 8, 4, 13
      |4, 11, 5, 7, 8, 4, 6, 7, 0, 5, 10, 8, 7, 8, 6, 9, 3, 9
      |6, 13, 10, 9, 8, 4, 1, 9, 5, 0, 12, 3, 9, 8, 9, 11, 5, 14
      |6, 13, 6, 3, 9, 8, 11, 9, 10, 12, 0, 13, 11, 10, 7, 11, 7, 10
      |7, 14, 8, 10, 5, 5, 2, 10, 8, 3, 13, 0, 10, 5, 9, 12, 6, 12
      |5, 12, 9, 8, 10, 5, 8, 8, 7, 9, 11, 10, 0, 9, 8, 10, 4, 13
      |4, 11, 10, 7, 9, 6, 7, 7, 8, 8, 10, 5, 9, 0, 9, 9, 5, 14
      |5, 12, 1, 4, 4, 5, 8, 8, 6, 9, 7, 9, 8, 9, 0, 10, 4, 5
      |5, 2, 11, 8, 10, 7, 10, 8, 9, 11, 11, 12, 10, 9, 10, 0, 6, 15
      |1, 8, 5, 4, 6, 1, 4, 4, 3, 5, 7, 6, 4, 5, 4, 6, 0, 9
      |10, 17, 4, 7, 7, 10, 13, 13, 9, 14, 10, 12, 13, 14, 5, 15, 9, 0
      |];

% Initial object distribution
S_init = [1, 1, 0, 1, 0, 0, 0, 0, 1, 0, 0, 0, 0, 0, 0, 0, 0, 0];

% Target nodes (1 if target, 0 otherwise)
T = [0, 0, 0, 0, 0, 0, 0, 0, 0, 0, 0, 0, 0, 0, 1, 1, 0, 1];

% Initial truck position (1-based indexing)
u = 6;

% --- DEBUG TRACE ---
% --- GENERATION TRACE (Backwards from Target) ---
% Initial distribution (all on targets): [0, 0, 0, 0, 0, 0, 0, 0, 0, 0, 0, 0, 0, 0, 2, 1, 0, 1]
% Step 1: Selected target node 18 (has 1 objects)
% Step 1: Moved object 18 -> 3
% Step 1: Distribution: [0, 0, 1, 0, 0, 0, 0, 0, 0, 0, 0, 0, 0, 0, 2, 1, 0, 0]
% Step 2: Selected target node 16 (has 1 objects)
% Step 2: Moved object 16 -> 2
% Step 2: Distribution: [0, 1, 1, 0, 0, 0, 0, 0, 0, 0, 0, 0, 0, 0, 2, 0, 0, 0]
% Step 3: Selected target node 15 (has 2 objects)
% Step 3: Moved object 15 -> 3
% Step 3: Distribution: [0, 1, 2, 0, 0, 0, 0, 0, 0, 0, 0, 0, 0, 0, 1, 0, 0, 0]
% Step 4: Selected target node 15 (has 1 objects)
% Step 4: Moved object 15 -> 17
% Step 4: Distribution: [0, 1, 2, 0, 0, 0, 0, 0, 0, 0, 0, 0, 0, 0, 0, 0, 1, 0]
% Step 5: Selected non-target node 3 (has 2 objects)
% Step 5: Avoiding backtrack to node 15
% Step 5: Moved object 3 -> 4
% Step 5: Distribution: [0, 1, 1, 1, 0, 0, 0, 0, 0, 0, 0, 0, 0, 0, 0, 0, 1, 0]
% Step 6: Selected non-target node 2 (has 1 objects)
% Step 6: Selected non-target node 4 (has 1 objects)
% Step 6: Avoiding backtrack to node 3
% Step 6: Moved object 4 -> 1
% Step 6: Distribution: [1, 1, 1, 0, 0, 0, 0, 0, 0, 0, 0, 0, 0, 0, 0, 0, 1, 0]
% Step 7: Selected non-target node 1 (has 1 objects)
% Step 7: Avoiding backtrack to node 4
% Step 7: Moved object 1 -> 8
% Step 7: Distribution: [0, 1, 1, 0, 0, 0, 0, 1, 0, 0, 0, 0, 0, 0, 0, 0, 1, 0]
% Step 8: Selected non-target node 3 (has 1 objects)
% Step 8: Avoiding backtrack to node 15
% Step 8: Moved object 3 -> 4
% Step 8: Distribution: [0, 1, 0, 1, 0, 0, 0, 1, 0, 0, 0, 0, 0, 0, 0, 0, 1, 0]
% Step 9: Selected non-target node 4 (has 1 objects)
% Step 9: Avoiding backtrack to node 3
% Step 9: Moved object 4 -> 6
% Step 9: Distribution: [0, 1, 0, 0, 0, 1, 0, 1, 0, 0, 0, 0, 0, 0, 0, 0, 1, 0]
% Step 10: Selected non-target node 17 (has 1 objects)
% Step 10: Avoiding backtrack to node 15
% Step 10: Moved object 17 -> 1
% Step 10: Distribution: [1, 1, 0, 0, 0, 1, 0, 1, 0, 0, 0, 0, 0, 0, 0, 0, 0, 0]
% Step 11: Selected non-target node 2 (has 1 objects)
% Step 11: Selected non-target node 1 (has 1 objects)
% Step 11: Avoiding backtrack to node 17
% Step 11: Moved object 1 -> 5
% Step 11: Distribution: [0, 1, 0, 0, 1, 1, 0, 1, 0, 0, 0, 0, 0, 0, 0, 0, 0, 0]
% Step 12: Selected non-target node 6 (has 1 objects)
% Step 12: Avoiding backtrack to node 4
% Step 12: Moved object 6 -> 7
% Step 12: Distribution: [0, 1, 0, 0, 1, 0, 1, 1, 0, 0, 0, 0, 0, 0, 0, 0, 0, 0]
% Step 13: Selected non-target node 2 (has 1 objects)
% Step 13: Selected non-target node 7 (has 1 objects)
% Step 13: Avoiding backtrack to node 6
% Step 13: Moved object 7 -> 10
% Step 13: Distribution: [0, 1, 0, 0, 1, 0, 0, 1, 0, 1, 0, 0, 0, 0, 0, 0, 0, 0]
% Step 14: Selected non-target node 10 (has 1 objects)
% Step 14: Avoiding backtrack to node 7
% Step 14: Moved object 10 -> 9
% Step 14: Distribution: [0, 1, 0, 0, 1, 0, 0, 1, 1, 0, 0, 0, 0, 0, 0, 0, 0, 0]
% Step 15: Selected non-target node 5 (has 1 objects)
% Step 15: Avoiding backtrack to node 1
% Step 15: Moved object 5 -> 3
% Step 15: Distribution: [0, 1, 1, 0, 0, 0, 0, 1, 1, 0, 0, 0, 0, 0, 0, 0, 0, 0]
% Step 16: Selected non-target node 3 (has 1 objects)
% Step 16: Avoiding backtrack to node 5
% Step 16: Moved object 3 -> 4
% Step 16: Distribution: [0, 1, 0, 1, 0, 0, 0, 1, 1, 0, 0, 0, 0, 0, 0, 0, 0, 0]
% Step 17: Selected non-target node 2 (has 1 objects)
% Step 17: Selected non-target node 8 (has 1 objects)
% Step 17: Moved object 8 -> 1
% Step 17: Distribution: [1, 1, 0, 1, 0, 0, 0, 0, 1, 0, 0, 0, 0, 0, 0, 0, 0, 0]
% Truck starting position: 6
