% instance_n14_c0_k11_i22.dzn
% Generated instance for the Trucks problem
% N=14, h=3, k=11

% Number of nodes
N = 14;

% Number of objects
h = 3;

% Maximum plan length
%k = 11;

% Adjacency matrix (0-based internal, will be converted to 1-based)
Adj = [|0, 0, 0, 1, 0, 1, 0, 0, 0, 1, 0, 0, 1, 0
      |0, 0, 0, 0, 1, 0, 1, 0, 0, 0, 0, 0, 1, 0
      |0, 0, 0, 0, 0, 0, 1, 0, 0, 0, 0, 0, 0, 0
      |1, 0, 0, 0, 0, 0, 0, 0, 0, 0, 0, 0, 0, 0
      |0, 1, 0, 0, 0, 0, 0, 0, 1, 0, 0, 1, 0, 0
      |1, 0, 0, 0, 0, 0, 0, 0, 0, 0, 1, 0, 0, 0
      |0, 1, 1, 0, 0, 0, 0, 0, 0, 0, 0, 0, 0, 0
      |0, 0, 0, 0, 0, 0, 0, 0, 0, 1, 0, 0, 0, 0
      |0, 0, 0, 0, 1, 0, 0, 0, 0, 0, 0, 0, 0, 0
      |1, 0, 0, 0, 0, 0, 0, 1, 0, 0, 0, 0, 0, 0
      |0, 0, 0, 0, 0, 1, 0, 0, 0, 0, 0, 0, 0, 0
      |0, 0, 0, 0, 1, 0, 0, 0, 0, 0, 0, 0, 1, 0
      |1, 1, 0, 0, 0, 0, 0, 0, 0, 0, 0, 1, 0, 1
      |0, 0, 0, 0, 0, 0, 0, 0, 0, 0, 0, 0, 1, 0
      |];

% Weights matrix (edge weights)
% Weights = [|0, 0, 0, 4, 0, 4, 0, 0, 0, 4, 0, 0, 3, 0
%           |0, 0, 0, 0, 5, 0, 2, 0, 0, 0, 0, 0, 5, 0
%           |0, 0, 0, 0, 0, 0, 4, 0, 0, 0, 0, 0, 0, 0
%           |4, 0, 0, 0, 0, 0, 0, 0, 0, 0, 0, 0, 0, 0
%           |0, 5, 0, 0, 0, 0, 0, 0, 5, 0, 0, 2, 0, 0
%           |4, 0, 0, 0, 0, 0, 0, 0, 0, 0, 1, 0, 0, 0
%           |0, 2, 4, 0, 0, 0, 0, 0, 0, 0, 0, 0, 0, 0
%           |0, 0, 0, 0, 0, 0, 0, 0, 0, 2, 0, 0, 0, 0
%           |0, 0, 0, 0, 5, 0, 0, 0, 0, 0, 0, 0, 0, 0
%           |4, 0, 0, 0, 0, 0, 0, 2, 0, 0, 0, 0, 0, 0
%           |0, 0, 0, 0, 0, 1, 0, 0, 0, 0, 0, 0, 0, 0
%           |0, 0, 0, 0, 2, 0, 0, 0, 0, 0, 0, 0, 3, 0
%           |3, 5, 0, 0, 0, 0, 0, 0, 0, 0, 0, 3, 0, 2
%           |0, 0, 0, 0, 0, 0, 0, 0, 0, 0, 0, 0, 2, 0
%           |];

% Distance matrix
Dist = [|0, 8, 14, 4, 8, 4, 10, 6, 13, 4, 5, 6, 3, 5
      |8, 0, 6, 12, 5, 12, 2, 14, 10, 12, 13, 7, 5, 7
      |14, 6, 0, 18, 11, 18, 4, 20, 16, 18, 19, 13, 11, 13
      |4, 12, 18, 0, 12, 8, 14, 10, 17, 8, 9, 10, 7, 9
      |8, 5, 11, 12, 0, 12, 7, 14, 5, 12, 13, 2, 5, 7
      |4, 12, 18, 8, 12, 0, 14, 10, 17, 8, 1, 10, 7, 9
      |10, 2, 4, 14, 7, 14, 0, 16, 12, 14, 15, 9, 7, 9
      |6, 14, 20, 10, 14, 10, 16, 0, 19, 2, 11, 12, 9, 11
      |13, 10, 16, 17, 5, 17, 12, 19, 0, 17, 18, 7, 10, 12
      |4, 12, 18, 8, 12, 8, 14, 2, 17, 0, 9, 10, 7, 9
      |5, 13, 19, 9, 13, 1, 15, 11, 18, 9, 0, 11, 8, 10
      |6, 7, 13, 10, 2, 10, 9, 12, 7, 10, 11, 0, 3, 5
      |3, 5, 11, 7, 5, 7, 7, 9, 10, 7, 8, 3, 0, 2
      |5, 7, 13, 9, 7, 9, 9, 11, 12, 9, 10, 5, 2, 0
      |];

% Initial object distribution
S_init = [0, 0, 0, 0, 0, 0, 1, 0, 0, 1, 0, 1, 0, 0];

% Target nodes (1 if target, 0 otherwise)
T = [0, 0, 0, 1, 1, 0, 0, 0, 0, 0, 0, 0, 1, 0];

% Initial truck position (1-based indexing)
u = 4;

% --- DEBUG TRACE ---
% --- GENERATION TRACE (Backwards from Target) ---
% Initial distribution (all on targets): [0, 0, 0, 1, 1, 0, 0, 0, 0, 0, 0, 0, 1, 0]
% Step 1: Selected target node 13 (has 1 objects)
% Step 1: Moved object 13 -> 12
% Step 1: Distribution: [0, 0, 0, 1, 1, 0, 0, 0, 0, 0, 0, 1, 0, 0]
% Step 2: Selected target node 5 (has 1 objects)
% Step 2: Moved object 5 -> 2
% Step 2: Distribution: [0, 1, 0, 1, 0, 0, 0, 0, 0, 0, 0, 1, 0, 0]
% Step 3: Selected target node 4 (has 1 objects)
% Step 3: Moved object 4 -> 1
% Step 3: Distribution: [1, 1, 0, 0, 0, 0, 0, 0, 0, 0, 0, 1, 0, 0]
% Step 4: Selected non-target node 1 (has 1 objects)
% Step 4: Avoiding backtrack to node 4
% Step 4: Moved object 1 -> 10
% Step 4: Distribution: [0, 1, 0, 0, 0, 0, 0, 0, 0, 1, 0, 1, 0, 0]
% Step 5: Selected non-target node 12 (has 1 objects)
% Step 5: Selected non-target node 2 (has 1 objects)
% Step 5: Avoiding backtrack to node 5
% Step 5: Moved object 2 -> 7
% Step 5: Distribution: [0, 0, 0, 0, 0, 0, 1, 0, 0, 1, 0, 1, 0, 0]
% Step 6: Selected non-target node 7 (has 1 objects)
% Step 6: Avoiding backtrack to node 2
% Step 6: Moved object 7 -> 3
% Step 6: Distribution: [0, 0, 1, 0, 0, 0, 0, 0, 0, 1, 0, 1, 0, 0]
% Step 7: Selected non-target node 10 (has 1 objects)
% Step 7: Avoiding backtrack to node 1
% Step 7: Moved object 10 -> 8
% Step 7: Distribution: [0, 0, 1, 0, 0, 0, 0, 1, 0, 0, 0, 1, 0, 0]
% Step 8: Selected non-target node 12 (has 1 objects)
% Step 8: Selected non-target node 8 (has 1 objects)
% Step 8: Moved object 8 -> 10
% Step 8: Distribution: [0, 0, 1, 0, 0, 0, 0, 0, 0, 1, 0, 1, 0, 0]
% Step 9: Selected non-target node 3 (has 1 objects)
% Step 9: Moved object 3 -> 7
% Step 9: Distribution: [0, 0, 0, 0, 0, 0, 1, 0, 0, 1, 0, 1, 0, 0]
% Step 10: Selected non-target node 7 (has 1 objects)
% Step 10: Avoiding backtrack to node 3
% Step 10: Moved object 7 -> 2
% Step 10: Distribution: [0, 1, 0, 0, 0, 0, 0, 0, 0, 1, 0, 1, 0, 0]
% Step 11: Selected non-target node 12 (has 1 objects)
% Step 11: Selected non-target node 2 (has 1 objects)
% Step 11: Moved object 2 -> 7
% Step 11: Distribution: [0, 0, 0, 0, 0, 0, 1, 0, 0, 1, 0, 1, 0, 0]
% Truck starting position: 4
