% instance_n22_c1_k14_i68.dzn
% Generated instance for the Trucks problem
% N=22, h=5, k=14

% Number of nodes
N = 22;

% Number of objects
h = 5;

% Maximum plan length
%k = 14;

% Adjacency matrix (0-based internal, will be converted to 1-based)
Adj = [|0, 0, 0, 0, 0, 0, 1, 0, 0, 0, 0, 0, 0, 0, 0, 0, 0, 0, 0, 0, 0, 1
      |0, 0, 0, 0, 0, 0, 0, 0, 0, 0, 0, 0, 1, 0, 0, 0, 0, 0, 0, 0, 0, 0
      |0, 0, 0, 0, 0, 0, 0, 0, 0, 0, 0, 0, 1, 0, 0, 1, 0, 0, 0, 0, 0, 0
      |0, 0, 0, 0, 0, 0, 0, 0, 0, 1, 0, 1, 0, 0, 0, 0, 0, 0, 0, 0, 0, 1
      |0, 0, 0, 0, 0, 0, 0, 0, 0, 0, 0, 0, 0, 0, 0, 0, 0, 0, 0, 0, 1, 0
      |0, 0, 0, 0, 0, 0, 1, 0, 0, 0, 0, 0, 0, 0, 0, 1, 0, 0, 1, 0, 0, 0
      |1, 0, 0, 0, 0, 1, 0, 0, 0, 1, 0, 0, 0, 0, 0, 0, 0, 0, 1, 0, 1, 0
      |0, 0, 0, 0, 0, 0, 0, 0, 0, 0, 0, 0, 1, 0, 0, 0, 0, 1, 0, 0, 0, 0
      |0, 0, 0, 0, 0, 0, 0, 0, 0, 1, 0, 0, 0, 0, 0, 0, 0, 0, 0, 0, 0, 0
      |0, 0, 0, 1, 0, 0, 1, 0, 1, 0, 0, 0, 0, 1, 0, 0, 0, 0, 0, 0, 0, 0
      |0, 0, 0, 0, 0, 0, 0, 0, 0, 0, 0, 0, 1, 0, 0, 0, 0, 0, 0, 0, 0, 0
      |0, 0, 0, 1, 0, 0, 0, 0, 0, 0, 0, 0, 0, 0, 0, 1, 0, 0, 0, 0, 0, 0
      |0, 1, 1, 0, 0, 0, 0, 1, 0, 0, 1, 0, 0, 0, 1, 0, 0, 0, 0, 0, 0, 0
      |0, 0, 0, 0, 0, 0, 0, 0, 0, 1, 0, 0, 0, 0, 0, 1, 0, 0, 0, 1, 0, 0
      |0, 0, 0, 0, 0, 0, 0, 0, 0, 0, 0, 0, 1, 0, 0, 0, 0, 0, 1, 0, 0, 0
      |0, 0, 1, 0, 0, 1, 0, 0, 0, 0, 0, 1, 0, 1, 0, 0, 0, 0, 0, 0, 0, 0
      |0, 0, 0, 0, 0, 0, 0, 0, 0, 0, 0, 0, 0, 0, 0, 0, 0, 1, 0, 0, 1, 0
      |0, 0, 0, 0, 0, 0, 0, 1, 0, 0, 0, 0, 0, 0, 0, 0, 1, 0, 1, 0, 0, 0
      |0, 0, 0, 0, 0, 1, 1, 0, 0, 0, 0, 0, 0, 0, 1, 0, 0, 1, 0, 0, 1, 0
      |0, 0, 0, 0, 0, 0, 0, 0, 0, 0, 0, 0, 0, 1, 0, 0, 0, 0, 0, 0, 0, 0
      |0, 0, 0, 0, 1, 0, 1, 0, 0, 0, 0, 0, 0, 0, 0, 0, 1, 0, 1, 0, 0, 0
      |1, 0, 0, 1, 0, 0, 0, 0, 0, 0, 0, 0, 0, 0, 0, 0, 0, 0, 0, 0, 0, 0
      |];

% Weights matrix (edge weights)
% Weights = [|0, 0, 0, 0, 0, 0, 2, 0, 0, 0, 0, 0, 0, 0, 0, 0, 0, 0, 0, 0, 0, 2
%           |0, 0, 0, 0, 0, 0, 0, 0, 0, 0, 0, 0, 3, 0, 0, 0, 0, 0, 0, 0, 0, 0
%           |0, 0, 0, 0, 0, 0, 0, 0, 0, 0, 0, 0, 3, 0, 0, 4, 0, 0, 0, 0, 0, 0
%           |0, 0, 0, 0, 0, 0, 0, 0, 0, 5, 0, 1, 0, 0, 0, 0, 0, 0, 0, 0, 0, 5
%           |0, 0, 0, 0, 0, 0, 0, 0, 0, 0, 0, 0, 0, 0, 0, 0, 0, 0, 0, 0, 2, 0
%           |0, 0, 0, 0, 0, 0, 2, 0, 0, 0, 0, 0, 0, 0, 0, 4, 0, 0, 2, 0, 0, 0
%           |2, 0, 0, 0, 0, 2, 0, 0, 0, 5, 0, 0, 0, 0, 0, 0, 0, 0, 5, 0, 4, 0
%           |0, 0, 0, 0, 0, 0, 0, 0, 0, 0, 0, 0, 1, 0, 0, 0, 0, 3, 0, 0, 0, 0
%           |0, 0, 0, 0, 0, 0, 0, 0, 0, 4, 0, 0, 0, 0, 0, 0, 0, 0, 0, 0, 0, 0
%           |0, 0, 0, 5, 0, 0, 5, 0, 4, 0, 0, 0, 0, 2, 0, 0, 0, 0, 0, 0, 0, 0
%           |0, 0, 0, 0, 0, 0, 0, 0, 0, 0, 0, 0, 3, 0, 0, 0, 0, 0, 0, 0, 0, 0
%           |0, 0, 0, 1, 0, 0, 0, 0, 0, 0, 0, 0, 0, 0, 0, 2, 0, 0, 0, 0, 0, 0
%           |0, 3, 3, 0, 0, 0, 0, 1, 0, 0, 3, 0, 0, 0, 2, 0, 0, 0, 0, 0, 0, 0
%           |0, 0, 0, 0, 0, 0, 0, 0, 0, 2, 0, 0, 0, 0, 0, 3, 0, 0, 0, 5, 0, 0
%           |0, 0, 0, 0, 0, 0, 0, 0, 0, 0, 0, 0, 2, 0, 0, 0, 0, 0, 2, 0, 0, 0
%           |0, 0, 4, 0, 0, 4, 0, 0, 0, 0, 0, 2, 0, 3, 0, 0, 0, 0, 0, 0, 0, 0
%           |0, 0, 0, 0, 0, 0, 0, 0, 0, 0, 0, 0, 0, 0, 0, 0, 0, 4, 0, 0, 1, 0
%           |0, 0, 0, 0, 0, 0, 0, 3, 0, 0, 0, 0, 0, 0, 0, 0, 4, 0, 3, 0, 0, 0
%           |0, 0, 0, 0, 0, 2, 5, 0, 0, 0, 0, 0, 0, 0, 2, 0, 0, 3, 0, 0, 1, 0
%           |0, 0, 0, 0, 0, 0, 0, 0, 0, 0, 0, 0, 0, 5, 0, 0, 0, 0, 0, 0, 0, 0
%           |0, 0, 0, 0, 2, 0, 4, 0, 0, 0, 0, 0, 0, 0, 0, 0, 1, 0, 1, 0, 0, 0
%           |2, 0, 0, 5, 0, 0, 0, 0, 0, 0, 0, 0, 0, 0, 0, 0, 0, 0, 0, 0, 0, 0
%           |];

% Distance matrix
Dist = [|0, 13, 12, 7, 8, 4, 2, 11, 11, 7, 13, 8, 10, 9, 8, 8, 7, 9, 6, 14, 6, 2
      |13, 0, 6, 13, 10, 9, 11, 4, 19, 15, 6, 12, 3, 13, 5, 10, 9, 7, 7, 18, 8, 15
      |12, 6, 0, 7, 10, 8, 10, 4, 13, 9, 6, 6, 3, 7, 5, 4, 9, 7, 7, 12, 8, 12
      |7, 13, 7, 0, 12, 7, 9, 11, 9, 5, 13, 1, 10, 6, 11, 3, 11, 12, 9, 11, 10, 5
      |8, 10, 10, 12, 0, 5, 6, 8, 15, 11, 10, 11, 7, 12, 5, 9, 3, 6, 3, 17, 2, 10
      |4, 9, 8, 7, 5, 0, 2, 7, 11, 7, 9, 6, 6, 7, 4, 4, 4, 5, 2, 12, 3, 6
      |2, 11, 10, 9, 6, 2, 0, 9, 9, 5, 11, 8, 8, 7, 6, 6, 5, 7, 4, 12, 4, 4
      |11, 4, 4, 11, 8, 7, 9, 0, 17, 13, 4, 10, 1, 11, 3, 8, 7, 3, 5, 16, 6, 13
      |11, 19, 13, 9, 15, 11, 9, 17, 0, 4, 19, 10, 16, 6, 15, 9, 14, 16, 13, 11, 13, 13
      |7, 15, 9, 5, 11, 7, 5, 13, 4, 0, 15, 6, 12, 2, 11, 5, 10, 12, 9, 7, 9, 9
      |13, 6, 6, 13, 10, 9, 11, 4, 19, 15, 0, 12, 3, 13, 5, 10, 9, 7, 7, 18, 8, 15
      |8, 12, 6, 1, 11, 6, 8, 10, 10, 6, 12, 0, 9, 5, 10, 2, 10, 11, 8, 10, 9, 6
      |10, 3, 3, 10, 7, 6, 8, 1, 16, 12, 3, 9, 0, 10, 2, 7, 6, 4, 4, 15, 5, 12
      |9, 13, 7, 6, 12, 7, 7, 11, 6, 2, 13, 5, 10, 0, 11, 3, 11, 12, 9, 5, 10, 11
      |8, 5, 5, 11, 5, 4, 6, 3, 15, 11, 5, 10, 2, 11, 0, 8, 4, 5, 2, 16, 3, 10
      |8, 10, 4, 3, 9, 4, 6, 8, 9, 5, 10, 2, 7, 3, 8, 0, 8, 9, 6, 8, 7, 8
      |7, 9, 9, 11, 3, 4, 5, 7, 14, 10, 9, 10, 6, 11, 4, 8, 0, 4, 2, 16, 1, 9
      |9, 7, 7, 12, 6, 5, 7, 3, 16, 12, 7, 11, 4, 12, 5, 9, 4, 0, 3, 17, 4, 11
      |6, 7, 7, 9, 3, 2, 4, 5, 13, 9, 7, 8, 4, 9, 2, 6, 2, 3, 0, 14, 1, 8
      |14, 18, 12, 11, 17, 12, 12, 16, 11, 7, 18, 10, 15, 5, 16, 8, 16, 17, 14, 0, 15, 16
      |6, 8, 8, 10, 2, 3, 4, 6, 13, 9, 8, 9, 5, 10, 3, 7, 1, 4, 1, 15, 0, 8
      |2, 15, 12, 5, 10, 6, 4, 13, 13, 9, 15, 6, 12, 11, 10, 8, 9, 11, 8, 16, 8, 0
      |];

% Initial object distribution
S_init = [0, 0, 1, 0, 0, 0, 1, 0, 0, 0, 0, 0, 3, 0, 0, 0, 0, 0, 0, 0, 0, 0];

% Target nodes (1 if target, 0 otherwise)
T = [0, 0, 0, 0, 0, 1, 0, 0, 0, 0, 0, 0, 0, 0, 0, 0, 1, 0, 1, 1, 0, 0];

% Initial truck position (1-based indexing)
u = 3;

% --- DEBUG TRACE ---
% --- GENERATION TRACE (Backwards from Target) ---
% Initial distribution (all on targets): [0, 0, 0, 0, 0, 2, 0, 0, 0, 0, 0, 0, 0, 0, 0, 0, 1, 0, 1, 1, 0, 0]
% Step 1: Selected target node 17 (has 1 objects)
% Step 1: Moved object 17 -> 18
% Step 1: Distribution: [0, 0, 0, 0, 0, 2, 0, 0, 0, 0, 0, 0, 0, 0, 0, 0, 0, 1, 1, 1, 0, 0]
% Step 2: Selected target node 19 (has 1 objects)
% Step 2: Moved object 19 -> 18
% Step 2: Distribution: [0, 0, 0, 0, 0, 2, 0, 0, 0, 0, 0, 0, 0, 0, 0, 0, 0, 2, 0, 1, 0, 0]
% Step 3: Selected target node 20 (has 1 objects)
% Step 3: Moved object 20 -> 14
% Step 3: Distribution: [0, 0, 0, 0, 0, 2, 0, 0, 0, 0, 0, 0, 0, 1, 0, 0, 0, 2, 0, 0, 0, 0]
% Step 4: Selected target node 6 (has 2 objects)
% Step 4: Moved object 6 -> 16
% Step 4: Distribution: [0, 0, 0, 0, 0, 1, 0, 0, 0, 0, 0, 0, 0, 1, 0, 1, 0, 2, 0, 0, 0, 0]
% Step 5: Selected target node 6 (has 1 objects)
% Step 5: Moved object 6 -> 16
% Step 5: Distribution: [0, 0, 0, 0, 0, 0, 0, 0, 0, 0, 0, 0, 0, 1, 0, 2, 0, 2, 0, 0, 0, 0]
% Step 6: Selected non-target node 14 (has 1 objects)
% Step 6: Avoiding backtrack to node 20
% Step 6: Moved object 14 -> 10
% Step 6: Distribution: [0, 0, 0, 0, 0, 0, 0, 0, 0, 1, 0, 0, 0, 0, 0, 2, 0, 2, 0, 0, 0, 0]
% Step 7: Selected non-target node 16 (has 2 objects)
% Step 7: Avoiding backtrack to node 6
% Step 7: Moved object 16 -> 3
% Step 7: Distribution: [0, 0, 1, 0, 0, 0, 0, 0, 0, 1, 0, 0, 0, 0, 0, 1, 0, 2, 0, 0, 0, 0]
% Step 8: Selected non-target node 18 (has 2 objects)
% Step 8: Avoiding backtrack to node 19
% Step 8: Moved object 18 -> 8
% Step 8: Distribution: [0, 0, 1, 0, 0, 0, 0, 1, 0, 1, 0, 0, 0, 0, 0, 1, 0, 1, 0, 0, 0, 0]
% Step 9: Selected non-target node 8 (has 1 objects)
% Step 9: Avoiding backtrack to node 18
% Step 9: Moved object 8 -> 13
% Step 9: Distribution: [0, 0, 1, 0, 0, 0, 0, 0, 0, 1, 0, 0, 1, 0, 0, 1, 0, 1, 0, 0, 0, 0]
% Step 10: Selected non-target node 10 (has 1 objects)
% Step 10: Avoiding backtrack to node 14
% Step 10: Moved object 10 -> 7
% Step 10: Distribution: [0, 0, 1, 0, 0, 0, 1, 0, 0, 0, 0, 0, 1, 0, 0, 1, 0, 1, 0, 0, 0, 0]
% Step 11: Selected non-target node 3 (has 1 objects)
% Step 11: Avoiding backtrack to node 16
% Step 11: Moved object 3 -> 13
% Step 11: Distribution: [0, 0, 0, 0, 0, 0, 1, 0, 0, 0, 0, 0, 2, 0, 0, 1, 0, 1, 0, 0, 0, 0]
% Step 12: Selected non-target node 18 (has 1 objects)
% Step 12: Avoiding backtrack to node 19
% Step 12: Moved object 18 -> 8
% Step 12: Distribution: [0, 0, 0, 0, 0, 0, 1, 1, 0, 0, 0, 0, 2, 0, 0, 1, 0, 0, 0, 0, 0, 0]
% Step 13: Selected non-target node 8 (has 1 objects)
% Step 13: Avoiding backtrack to node 18
% Step 13: Moved object 8 -> 13
% Step 13: Distribution: [0, 0, 0, 0, 0, 0, 1, 0, 0, 0, 0, 0, 3, 0, 0, 1, 0, 0, 0, 0, 0, 0]
% Step 14: Selected non-target node 16 (has 1 objects)
% Step 14: Avoiding backtrack to node 6
% Step 14: Moved object 16 -> 3
% Step 14: Distribution: [0, 0, 1, 0, 0, 0, 1, 0, 0, 0, 0, 0, 3, 0, 0, 0, 0, 0, 0, 0, 0, 0]
% Truck starting position: 3
