% instance_n14_c2_k5_i30.dzn
% Generated instance for the Trucks problem
% N=14, h=3, k=5

% Number of nodes
N = 14;

% Number of objects
h = 3;

% Maximum plan length
%k = 5;

% Adjacency matrix (0-based internal, will be converted to 1-based)
Adj = [|0, 1, 0, 1, 0, 0, 0, 1, 1, 0, 0, 0, 0, 0
      |1, 0, 0, 0, 0, 0, 0, 0, 0, 1, 0, 0, 0, 1
      |0, 0, 0, 1, 0, 0, 0, 0, 0, 0, 0, 0, 0, 0
      |1, 0, 1, 0, 1, 0, 1, 0, 0, 0, 0, 1, 0, 0
      |0, 0, 0, 1, 0, 0, 0, 0, 0, 0, 0, 0, 0, 0
      |0, 0, 0, 0, 0, 0, 0, 0, 1, 0, 0, 0, 0, 0
      |0, 0, 0, 1, 0, 0, 0, 0, 0, 0, 0, 0, 0, 0
      |1, 0, 0, 0, 0, 0, 0, 0, 0, 0, 0, 0, 1, 0
      |1, 0, 0, 0, 0, 1, 0, 0, 0, 0, 1, 0, 1, 0
      |0, 1, 0, 0, 0, 0, 0, 0, 0, 0, 0, 0, 0, 1
      |0, 0, 0, 0, 0, 0, 0, 0, 1, 0, 0, 0, 0, 0
      |0, 0, 0, 1, 0, 0, 0, 0, 0, 0, 0, 0, 1, 0
      |0, 0, 0, 0, 0, 0, 0, 1, 1, 0, 0, 1, 0, 0
      |0, 1, 0, 0, 0, 0, 0, 0, 0, 1, 0, 0, 0, 0
      |];

% Weights matrix (edge weights)
% Weights = [|0, 3, 0, 4, 0, 0, 0, 3, 4, 0, 0, 0, 0, 0
%           |3, 0, 0, 0, 0, 0, 0, 0, 0, 4, 0, 0, 0, 3
%           |0, 0, 0, 4, 0, 0, 0, 0, 0, 0, 0, 0, 0, 0
%           |4, 0, 4, 0, 5, 0, 2, 0, 0, 0, 0, 4, 0, 0
%           |0, 0, 0, 5, 0, 0, 0, 0, 0, 0, 0, 0, 0, 0
%           |0, 0, 0, 0, 0, 0, 0, 0, 5, 0, 0, 0, 0, 0
%           |0, 0, 0, 2, 0, 0, 0, 0, 0, 0, 0, 0, 0, 0
%           |3, 0, 0, 0, 0, 0, 0, 0, 0, 0, 0, 0, 1, 0
%           |4, 0, 0, 0, 0, 5, 0, 0, 0, 0, 1, 0, 2, 0
%           |0, 4, 0, 0, 0, 0, 0, 0, 0, 0, 0, 0, 0, 4
%           |0, 0, 0, 0, 0, 0, 0, 0, 1, 0, 0, 0, 0, 0
%           |0, 0, 0, 4, 0, 0, 0, 0, 0, 0, 0, 0, 3, 0
%           |0, 0, 0, 0, 0, 0, 0, 1, 2, 0, 0, 3, 0, 0
%           |0, 3, 0, 0, 0, 0, 0, 0, 0, 4, 0, 0, 0, 0
%           |];

% Distance matrix
Dist = [|0, 3, 8, 4, 9, 9, 6, 3, 4, 7, 5, 7, 4, 6
      |3, 0, 11, 7, 12, 12, 9, 6, 7, 4, 8, 10, 7, 3
      |8, 11, 0, 4, 9, 17, 6, 11, 12, 15, 13, 8, 11, 14
      |4, 7, 4, 0, 5, 13, 2, 7, 8, 11, 9, 4, 7, 10
      |9, 12, 9, 5, 0, 18, 7, 12, 13, 16, 14, 9, 12, 15
      |9, 12, 17, 13, 18, 0, 15, 8, 5, 16, 6, 10, 7, 15
      |6, 9, 6, 2, 7, 15, 0, 9, 10, 13, 11, 6, 9, 12
      |3, 6, 11, 7, 12, 8, 9, 0, 3, 10, 4, 4, 1, 9
      |4, 7, 12, 8, 13, 5, 10, 3, 0, 11, 1, 5, 2, 10
      |7, 4, 15, 11, 16, 16, 13, 10, 11, 0, 12, 14, 11, 4
      |5, 8, 13, 9, 14, 6, 11, 4, 1, 12, 0, 6, 3, 11
      |7, 10, 8, 4, 9, 10, 6, 4, 5, 14, 6, 0, 3, 13
      |4, 7, 11, 7, 12, 7, 9, 1, 2, 11, 3, 3, 0, 10
      |6, 3, 14, 10, 15, 15, 12, 9, 10, 4, 11, 13, 10, 0
      |];

% Initial object distribution
S_init = [2, 1, 0, 0, 0, 0, 0, 0, 0, 0, 0, 0, 0, 0];

% Target nodes (1 if target, 0 otherwise)
T = [0, 0, 0, 0, 0, 1, 0, 0, 0, 0, 0, 0, 1, 1];

% Initial truck position (1-based indexing)
u = 7;

% --- DEBUG TRACE ---
% --- GENERATION TRACE (Backwards from Target) ---
% Initial distribution (all on targets): [0, 0, 0, 0, 0, 1, 0, 0, 0, 0, 0, 0, 1, 1]
% Step 1: Selected target node 14 (has 1 objects)
% Step 1: Moved object 14 -> 2
% Step 1: Distribution: [0, 1, 0, 0, 0, 1, 0, 0, 0, 0, 0, 0, 1, 0]
% Step 2: Selected target node 6 (has 1 objects)
% Step 2: Moved object 6 -> 9
% Step 2: Distribution: [0, 1, 0, 0, 0, 0, 0, 0, 1, 0, 0, 0, 1, 0]
% Step 3: Selected target node 13 (has 1 objects)
% Step 3: Moved object 13 -> 9
% Step 3: Distribution: [0, 1, 0, 0, 0, 0, 0, 0, 2, 0, 0, 0, 0, 0]
% Step 4: Selected non-target node 9 (has 2 objects)
% Step 4: Avoiding backtrack to node 13
% Step 4: Moved object 9 -> 1
% Step 4: Distribution: [1, 1, 0, 0, 0, 0, 0, 0, 1, 0, 0, 0, 0, 0]
% Step 5: Selected non-target node 9 (has 1 objects)
% Step 5: Avoiding backtrack to node 13
% Step 5: Moved object 9 -> 1
% Step 5: Distribution: [2, 1, 0, 0, 0, 0, 0, 0, 0, 0, 0, 0, 0, 0]
% Truck starting position: 7
