% instance_n10_c1_k8_i6.dzn
% Generated instance for the Trucks problem
% N=10, h=3, k=8

% Number of nodes
N = 10;

% Number of objects
h = 3;

% Maximum plan length
%k = 8;

% Adjacency matrix (0-based internal, will be converted to 1-based)
Adj = [|0, 0, 0, 1, 0, 1, 1, 0, 0, 1
      |0, 0, 1, 0, 0, 0, 0, 0, 0, 0
      |0, 1, 0, 1, 0, 1, 0, 0, 0, 0
      |1, 0, 1, 0, 0, 0, 0, 0, 0, 0
      |0, 0, 0, 0, 0, 1, 0, 0, 0, 0
      |1, 0, 1, 0, 1, 0, 0, 0, 1, 0
      |1, 0, 0, 0, 0, 0, 0, 0, 0, 0
      |0, 0, 0, 0, 0, 0, 0, 0, 1, 0
      |0, 0, 0, 0, 0, 1, 0, 1, 0, 1
      |1, 0, 0, 0, 0, 0, 0, 0, 1, 0
      |];

% Weights matrix (edge weights)
% Weights = [|0, 0, 0, 4, 0, 4, 3, 0, 0, 2
%           |0, 0, 4, 0, 0, 0, 0, 0, 0, 0
%           |0, 4, 0, 4, 0, 2, 0, 0, 0, 0
%           |4, 0, 4, 0, 0, 0, 0, 0, 0, 0
%           |0, 0, 0, 0, 0, 4, 0, 0, 0, 0
%           |4, 0, 2, 0, 4, 0, 0, 0, 1, 0
%           |3, 0, 0, 0, 0, 0, 0, 0, 0, 0
%           |0, 0, 0, 0, 0, 0, 0, 0, 2, 0
%           |0, 0, 0, 0, 0, 1, 0, 2, 0, 2
%           |2, 0, 0, 0, 0, 0, 0, 0, 2, 0
%           |];

% Distance matrix
Dist = [|0, 10, 6, 4, 8, 4, 3, 6, 4, 2
      |10, 0, 4, 8, 10, 6, 13, 9, 7, 9
      |6, 4, 0, 4, 6, 2, 9, 5, 3, 5
      |4, 8, 4, 0, 10, 6, 7, 9, 7, 6
      |8, 10, 6, 10, 0, 4, 11, 7, 5, 7
      |4, 6, 2, 6, 4, 0, 7, 3, 1, 3
      |3, 13, 9, 7, 11, 7, 0, 9, 7, 5
      |6, 9, 5, 9, 7, 3, 9, 0, 2, 4
      |4, 7, 3, 7, 5, 1, 7, 2, 0, 2
      |2, 9, 5, 6, 7, 3, 5, 4, 2, 0
      |];

% Initial object distribution
S_init = [1, 0, 1, 0, 0, 1, 0, 0, 0, 0];

% Target nodes (1 if target, 0 otherwise)
T = [0, 1, 0, 0, 1, 0, 0, 0, 1, 0];

% Initial truck position (1-based indexing)
u = 6;

% --- DEBUG TRACE ---
% --- GENERATION TRACE (Backwards from Target) ---
% Initial distribution (all on targets): [0, 1, 0, 0, 1, 0, 0, 0, 1, 0]
% Step 1: Selected target node 9 (has 1 objects)
% Step 1: Moved object 9 -> 6
% Step 1: Distribution: [0, 1, 0, 0, 1, 1, 0, 0, 0, 0]
% Step 2: Selected target node 2 (has 1 objects)
% Step 2: Moved object 2 -> 3
% Step 2: Distribution: [0, 0, 1, 0, 1, 1, 0, 0, 0, 0]
% Step 3: Selected target node 5 (has 1 objects)
% Step 3: Moved object 5 -> 6
% Step 3: Distribution: [0, 0, 1, 0, 0, 2, 0, 0, 0, 0]
% Step 4: Selected non-target node 3 (has 1 objects)
% Step 4: Avoiding backtrack to node 2
% Step 4: Moved object 3 -> 4
% Step 4: Distribution: [0, 0, 0, 1, 0, 2, 0, 0, 0, 0]
% Step 5: Selected non-target node 4 (has 1 objects)
% Step 5: Avoiding backtrack to node 3
% Step 5: Moved object 4 -> 1
% Step 5: Distribution: [1, 0, 0, 0, 0, 2, 0, 0, 0, 0]
% Step 6: Selected non-target node 1 (has 1 objects)
% Step 6: Avoiding backtrack to node 4
% Step 6: Moved object 1 -> 10
% Step 6: Distribution: [0, 0, 0, 0, 0, 2, 0, 0, 0, 1]
% Step 7: Selected non-target node 10 (has 1 objects)
% Step 7: Moved object 10 -> 1
% Step 7: Distribution: [1, 0, 0, 0, 0, 2, 0, 0, 0, 0]
% Step 8: Selected non-target node 6 (has 2 objects)
% Step 8: Avoiding backtrack to node 5
% Step 8: Moved object 6 -> 3
% Step 8: Distribution: [1, 0, 1, 0, 0, 1, 0, 0, 0, 0]
% Truck starting position: 6
