% instance_n22_c2_k17_i74.dzn
% Generated instance for the Trucks problem
% N=22, h=5, k=17

% Number of nodes
N = 22;

% Number of objects
h = 5;

% Maximum plan length
%k = 17;

% Adjacency matrix (0-based internal, will be converted to 1-based)
Adj = [|0, 1, 0, 0, 1, 1, 1, 0, 0, 0, 1, 0, 0, 0, 1, 0, 1, 0, 0, 1, 1, 0
      |1, 0, 0, 0, 0, 0, 0, 0, 0, 0, 1, 0, 0, 0, 0, 0, 0, 0, 0, 0, 0, 0
      |0, 0, 0, 0, 0, 0, 0, 0, 0, 0, 0, 1, 0, 0, 0, 0, 0, 0, 0, 0, 1, 0
      |0, 0, 0, 0, 0, 0, 0, 0, 0, 0, 1, 0, 1, 1, 0, 0, 0, 0, 0, 0, 0, 0
      |1, 0, 0, 0, 0, 0, 0, 0, 0, 0, 0, 0, 0, 0, 0, 0, 0, 0, 0, 0, 1, 1
      |1, 0, 0, 0, 0, 0, 0, 0, 0, 0, 0, 0, 0, 0, 0, 0, 0, 0, 0, 0, 0, 0
      |1, 0, 0, 0, 0, 0, 0, 0, 0, 0, 0, 0, 0, 0, 0, 0, 0, 0, 0, 0, 0, 0
      |0, 0, 0, 0, 0, 0, 0, 0, 0, 0, 0, 0, 0, 0, 0, 0, 0, 0, 0, 1, 0, 0
      |0, 0, 0, 0, 0, 0, 0, 0, 0, 0, 0, 0, 0, 0, 0, 0, 0, 0, 1, 0, 0, 0
      |0, 0, 0, 0, 0, 0, 0, 0, 0, 0, 1, 0, 0, 0, 0, 0, 0, 0, 0, 0, 1, 0
      |1, 1, 0, 1, 0, 0, 0, 0, 0, 1, 0, 0, 0, 0, 0, 1, 0, 1, 0, 0, 0, 0
      |0, 0, 1, 0, 0, 0, 0, 0, 0, 0, 0, 0, 1, 0, 0, 0, 0, 0, 0, 0, 0, 1
      |0, 0, 0, 1, 0, 0, 0, 0, 0, 0, 0, 1, 0, 0, 0, 0, 0, 0, 0, 1, 0, 0
      |0, 0, 0, 1, 0, 0, 0, 0, 0, 0, 0, 0, 0, 0, 0, 0, 0, 0, 0, 1, 0, 0
      |1, 0, 0, 0, 0, 0, 0, 0, 0, 0, 0, 0, 0, 0, 0, 0, 0, 0, 0, 0, 0, 0
      |0, 0, 0, 0, 0, 0, 0, 0, 0, 0, 1, 0, 0, 0, 0, 0, 0, 0, 0, 0, 0, 0
      |1, 0, 0, 0, 0, 0, 0, 0, 0, 0, 0, 0, 0, 0, 0, 0, 0, 0, 0, 0, 0, 0
      |0, 0, 0, 0, 0, 0, 0, 0, 0, 0, 1, 0, 0, 0, 0, 0, 0, 0, 0, 0, 0, 0
      |0, 0, 0, 0, 0, 0, 0, 0, 1, 0, 0, 0, 0, 0, 0, 0, 0, 0, 0, 1, 0, 0
      |1, 0, 0, 0, 0, 0, 0, 1, 0, 0, 0, 0, 1, 1, 0, 0, 0, 0, 1, 0, 0, 0
      |1, 0, 1, 0, 1, 0, 0, 0, 0, 1, 0, 0, 0, 0, 0, 0, 0, 0, 0, 0, 0, 0
      |0, 0, 0, 0, 1, 0, 0, 0, 0, 0, 0, 1, 0, 0, 0, 0, 0, 0, 0, 0, 0, 0
      |];

% Weights matrix (edge weights)
% Weights = [|0, 5, 0, 0, 1, 2, 1, 0, 0, 0, 5, 0, 0, 0, 5, 0, 3, 0, 0, 1, 5, 0
%           |5, 0, 0, 0, 0, 0, 0, 0, 0, 0, 3, 0, 0, 0, 0, 0, 0, 0, 0, 0, 0, 0
%           |0, 0, 0, 0, 0, 0, 0, 0, 0, 0, 0, 5, 0, 0, 0, 0, 0, 0, 0, 0, 1, 0
%           |0, 0, 0, 0, 0, 0, 0, 0, 0, 0, 3, 0, 4, 2, 0, 0, 0, 0, 0, 0, 0, 0
%           |1, 0, 0, 0, 0, 0, 0, 0, 0, 0, 0, 0, 0, 0, 0, 0, 0, 0, 0, 0, 5, 1
%           |2, 0, 0, 0, 0, 0, 0, 0, 0, 0, 0, 0, 0, 0, 0, 0, 0, 0, 0, 0, 0, 0
%           |1, 0, 0, 0, 0, 0, 0, 0, 0, 0, 0, 0, 0, 0, 0, 0, 0, 0, 0, 0, 0, 0
%           |0, 0, 0, 0, 0, 0, 0, 0, 0, 0, 0, 0, 0, 0, 0, 0, 0, 0, 0, 3, 0, 0
%           |0, 0, 0, 0, 0, 0, 0, 0, 0, 0, 0, 0, 0, 0, 0, 0, 0, 0, 3, 0, 0, 0
%           |0, 0, 0, 0, 0, 0, 0, 0, 0, 0, 2, 0, 0, 0, 0, 0, 0, 0, 0, 0, 1, 0
%           |5, 3, 0, 3, 0, 0, 0, 0, 0, 2, 0, 0, 0, 0, 0, 2, 0, 5, 0, 0, 0, 0
%           |0, 0, 5, 0, 0, 0, 0, 0, 0, 0, 0, 0, 2, 0, 0, 0, 0, 0, 0, 0, 0, 5
%           |0, 0, 0, 4, 0, 0, 0, 0, 0, 0, 0, 2, 0, 0, 0, 0, 0, 0, 0, 2, 0, 0
%           |0, 0, 0, 2, 0, 0, 0, 0, 0, 0, 0, 0, 0, 0, 0, 0, 0, 0, 0, 5, 0, 0
%           |5, 0, 0, 0, 0, 0, 0, 0, 0, 0, 0, 0, 0, 0, 0, 0, 0, 0, 0, 0, 0, 0
%           |0, 0, 0, 0, 0, 0, 0, 0, 0, 0, 2, 0, 0, 0, 0, 0, 0, 0, 0, 0, 0, 0
%           |3, 0, 0, 0, 0, 0, 0, 0, 0, 0, 0, 0, 0, 0, 0, 0, 0, 0, 0, 0, 0, 0
%           |0, 0, 0, 0, 0, 0, 0, 0, 0, 0, 5, 0, 0, 0, 0, 0, 0, 0, 0, 0, 0, 0
%           |0, 0, 0, 0, 0, 0, 0, 0, 3, 0, 0, 0, 0, 0, 0, 0, 0, 0, 0, 3, 0, 0
%           |1, 0, 0, 0, 0, 0, 0, 3, 0, 0, 0, 0, 2, 5, 0, 0, 0, 0, 3, 0, 0, 0
%           |5, 0, 1, 0, 5, 0, 0, 0, 0, 1, 0, 0, 0, 0, 0, 0, 0, 0, 0, 0, 0, 0
%           |0, 0, 0, 0, 1, 0, 0, 0, 0, 0, 0, 5, 0, 0, 0, 0, 0, 0, 0, 0, 0, 0
%           |];

% Distance matrix
Dist = [|0, 5, 6, 7, 1, 2, 1, 4, 7, 6, 5, 5, 3, 6, 5, 7, 3, 10, 4, 1, 5, 2
      |5, 0, 7, 6, 6, 7, 6, 9, 12, 5, 3, 10, 8, 8, 10, 5, 8, 8, 9, 6, 6, 7
      |6, 7, 0, 7, 6, 8, 7, 10, 13, 2, 4, 5, 7, 9, 11, 6, 9, 9, 10, 7, 1, 7
      |7, 6, 7, 0, 8, 9, 8, 9, 12, 5, 3, 6, 4, 2, 12, 5, 10, 8, 9, 6, 6, 9
      |1, 6, 6, 8, 0, 3, 2, 5, 8, 6, 6, 6, 4, 7, 6, 8, 4, 11, 5, 2, 5, 1
      |2, 7, 8, 9, 3, 0, 3, 6, 9, 8, 7, 7, 5, 8, 7, 9, 5, 12, 6, 3, 7, 4
      |1, 6, 7, 8, 2, 3, 0, 5, 8, 7, 6, 6, 4, 7, 6, 8, 4, 11, 5, 2, 6, 3
      |4, 9, 10, 9, 5, 6, 5, 0, 9, 10, 9, 7, 5, 8, 9, 11, 7, 14, 6, 3, 9, 6
      |7, 12, 13, 12, 8, 9, 8, 9, 0, 13, 12, 10, 8, 11, 12, 14, 10, 17, 3, 6, 12, 9
      |6, 5, 2, 5, 6, 8, 7, 10, 13, 0, 2, 7, 9, 7, 11, 4, 9, 7, 10, 7, 1, 7
      |5, 3, 4, 3, 6, 7, 6, 9, 12, 2, 0, 9, 7, 5, 10, 2, 8, 5, 9, 6, 3, 7
      |5, 10, 5, 6, 6, 7, 6, 7, 10, 7, 9, 0, 2, 8, 10, 11, 8, 14, 7, 4, 6, 5
      |3, 8, 7, 4, 4, 5, 4, 5, 8, 9, 7, 2, 0, 6, 8, 9, 6, 12, 5, 2, 8, 5
      |6, 8, 9, 2, 7, 8, 7, 8, 11, 7, 5, 8, 6, 0, 11, 7, 9, 10, 8, 5, 8, 8
      |5, 10, 11, 12, 6, 7, 6, 9, 12, 11, 10, 10, 8, 11, 0, 12, 8, 15, 9, 6, 10, 7
      |7, 5, 6, 5, 8, 9, 8, 11, 14, 4, 2, 11, 9, 7, 12, 0, 10, 7, 11, 8, 5, 9
      |3, 8, 9, 10, 4, 5, 4, 7, 10, 9, 8, 8, 6, 9, 8, 10, 0, 13, 7, 4, 8, 5
      |10, 8, 9, 8, 11, 12, 11, 14, 17, 7, 5, 14, 12, 10, 15, 7, 13, 0, 14, 11, 8, 12
      |4, 9, 10, 9, 5, 6, 5, 6, 3, 10, 9, 7, 5, 8, 9, 11, 7, 14, 0, 3, 9, 6
      |1, 6, 7, 6, 2, 3, 2, 3, 6, 7, 6, 4, 2, 5, 6, 8, 4, 11, 3, 0, 6, 3
      |5, 6, 1, 6, 5, 7, 6, 9, 12, 1, 3, 6, 8, 8, 10, 5, 8, 8, 9, 6, 0, 6
      |2, 7, 7, 9, 1, 4, 3, 6, 9, 7, 7, 5, 5, 8, 7, 9, 5, 12, 6, 3, 6, 0
      |];

% Initial object distribution
S_init = [0, 0, 0, 0, 3, 0, 0, 0, 0, 0, 2, 0, 0, 0, 0, 0, 0, 0, 0, 0, 0, 0];

% Target nodes (1 if target, 0 otherwise)
T = [0, 0, 0, 0, 0, 0, 1, 0, 0, 0, 0, 0, 0, 0, 1, 0, 1, 0, 0, 0, 0, 0];

% Initial truck position (1-based indexing)
u = 9;

% --- DEBUG TRACE ---
% --- GENERATION TRACE (Backwards from Target) ---
% Initial distribution (all on targets): [0, 0, 0, 0, 0, 0, 1, 0, 0, 0, 0, 0, 0, 0, 1, 0, 3, 0, 0, 0, 0, 0]
% Step 1: Selected target node 7 (has 1 objects)
% Step 1: Moved object 7 -> 1
% Step 1: Distribution: [1, 0, 0, 0, 0, 0, 0, 0, 0, 0, 0, 0, 0, 0, 1, 0, 3, 0, 0, 0, 0, 0]
% Step 2: Selected target node 17 (has 3 objects)
% Step 2: Moved object 17 -> 1
% Step 2: Distribution: [2, 0, 0, 0, 0, 0, 0, 0, 0, 0, 0, 0, 0, 0, 1, 0, 2, 0, 0, 0, 0, 0]
% Step 3: Selected target node 15 (has 1 objects)
% Step 3: Moved object 15 -> 1
% Step 3: Distribution: [3, 0, 0, 0, 0, 0, 0, 0, 0, 0, 0, 0, 0, 0, 0, 0, 2, 0, 0, 0, 0, 0]
% Step 4: Selected target node 17 (has 2 objects)
% Step 4: Moved object 17 -> 1
% Step 4: Distribution: [4, 0, 0, 0, 0, 0, 0, 0, 0, 0, 0, 0, 0, 0, 0, 0, 1, 0, 0, 0, 0, 0]
% Step 5: Selected target node 17 (has 1 objects)
% Step 5: Moved object 17 -> 1
% Step 5: Distribution: [5, 0, 0, 0, 0, 0, 0, 0, 0, 0, 0, 0, 0, 0, 0, 0, 0, 0, 0, 0, 0, 0]
% Step 6: Selected non-target node 1 (has 5 objects)
% Step 6: Avoiding backtrack to node 17
% Step 6: Moved object 1 -> 5
% Step 6: Distribution: [4, 0, 0, 0, 1, 0, 0, 0, 0, 0, 0, 0, 0, 0, 0, 0, 0, 0, 0, 0, 0, 0]
% Step 7: Selected non-target node 5 (has 1 objects)
% Step 7: Avoiding backtrack to node 1
% Step 7: Moved object 5 -> 21
% Step 7: Distribution: [4, 0, 0, 0, 0, 0, 0, 0, 0, 0, 0, 0, 0, 0, 0, 0, 0, 0, 0, 0, 1, 0]
% Step 8: Selected non-target node 1 (has 4 objects)
% Step 8: Avoiding backtrack to node 17
% Step 8: Moved object 1 -> 21
% Step 8: Distribution: [3, 0, 0, 0, 0, 0, 0, 0, 0, 0, 0, 0, 0, 0, 0, 0, 0, 0, 0, 0, 2, 0]
% Step 9: Selected non-target node 1 (has 3 objects)
% Step 9: Avoiding backtrack to node 17
% Step 9: Moved object 1 -> 6
% Step 9: Distribution: [2, 0, 0, 0, 0, 1, 0, 0, 0, 0, 0, 0, 0, 0, 0, 0, 0, 0, 0, 0, 2, 0]
% Step 10: Selected non-target node 6 (has 1 objects)
% Step 10: Moved object 6 -> 1
% Step 10: Distribution: [3, 0, 0, 0, 0, 0, 0, 0, 0, 0, 0, 0, 0, 0, 0, 0, 0, 0, 0, 0, 2, 0]
% Step 11: Selected non-target node 1 (has 3 objects)
% Step 11: Avoiding backtrack to node 6
% Step 11: Moved object 1 -> 11
% Step 11: Distribution: [2, 0, 0, 0, 0, 0, 0, 0, 0, 0, 1, 0, 0, 0, 0, 0, 0, 0, 0, 0, 2, 0]
% Step 12: Selected non-target node 21 (has 2 objects)
% Step 12: Avoiding backtrack to node 1
% Step 12: Moved object 21 -> 5
% Step 12: Distribution: [2, 0, 0, 0, 1, 0, 0, 0, 0, 0, 1, 0, 0, 0, 0, 0, 0, 0, 0, 0, 1, 0]
% Step 13: Selected non-target node 21 (has 1 objects)
% Step 13: Avoiding backtrack to node 1
% Step 13: Moved object 21 -> 5
% Step 13: Distribution: [2, 0, 0, 0, 2, 0, 0, 0, 0, 0, 1, 0, 0, 0, 0, 0, 0, 0, 0, 0, 0, 0]
% Step 14: Selected non-target node 1 (has 2 objects)
% Step 14: Avoiding backtrack to node 6
% Step 14: Moved object 1 -> 5
% Step 14: Distribution: [1, 0, 0, 0, 3, 0, 0, 0, 0, 0, 1, 0, 0, 0, 0, 0, 0, 0, 0, 0, 0, 0]
% Step 15: Selected non-target node 11 (has 1 objects)
% Step 15: Avoiding backtrack to node 1
% Step 15: Moved object 11 -> 18
% Step 15: Distribution: [1, 0, 0, 0, 3, 0, 0, 0, 0, 0, 0, 0, 0, 0, 0, 0, 0, 1, 0, 0, 0, 0]
% Step 16: Selected non-target node 1 (has 1 objects)
% Step 16: Avoiding backtrack to node 6
% Step 16: Moved object 1 -> 11
% Step 16: Distribution: [0, 0, 0, 0, 3, 0, 0, 0, 0, 0, 1, 0, 0, 0, 0, 0, 0, 1, 0, 0, 0, 0]
% Step 17: Selected non-target node 18 (has 1 objects)
% Step 17: Moved object 18 -> 11
% Step 17: Distribution: [0, 0, 0, 0, 3, 0, 0, 0, 0, 0, 2, 0, 0, 0, 0, 0, 0, 0, 0, 0, 0, 0]
% Truck starting position: 9
