% instance_n26_c2_k8_i91.dzn
% Generated instance for the Trucks problem
% N=26, h=6, k=8

% Number of nodes
N = 26;

% Number of objects
h = 6;

% Maximum plan length
%k = 8;

% Adjacency matrix (0-based internal, will be converted to 1-based)
Adj = [|0, 0, 0, 0, 0, 0, 0, 0, 1, 0, 0, 0, 0, 0, 0, 0, 0, 0, 0, 0, 0, 0, 0, 1, 1, 1
      |0, 0, 0, 0, 0, 0, 0, 0, 0, 0, 0, 0, 0, 1, 0, 0, 0, 0, 0, 0, 0, 0, 0, 0, 1, 0
      |0, 0, 0, 0, 0, 0, 0, 0, 0, 1, 0, 0, 0, 0, 0, 0, 0, 0, 1, 0, 0, 0, 0, 0, 0, 0
      |0, 0, 0, 0, 0, 0, 0, 0, 0, 0, 1, 0, 0, 0, 0, 0, 0, 0, 0, 0, 0, 0, 1, 0, 0, 0
      |0, 0, 0, 0, 0, 0, 0, 0, 0, 0, 0, 0, 0, 0, 1, 0, 0, 0, 1, 0, 1, 0, 0, 0, 1, 0
      |0, 0, 0, 0, 0, 0, 0, 1, 0, 0, 0, 0, 0, 0, 0, 0, 0, 0, 0, 0, 0, 0, 0, 0, 0, 0
      |0, 0, 0, 0, 0, 0, 0, 0, 0, 0, 0, 0, 0, 0, 0, 0, 0, 0, 0, 1, 0, 0, 0, 0, 0, 0
      |0, 0, 0, 0, 0, 1, 0, 0, 0, 0, 0, 1, 0, 0, 0, 0, 0, 0, 0, 0, 0, 0, 0, 0, 0, 0
      |1, 0, 0, 0, 0, 0, 0, 0, 0, 0, 0, 0, 0, 0, 0, 0, 0, 0, 0, 0, 0, 0, 0, 0, 1, 0
      |0, 0, 1, 0, 0, 0, 0, 0, 0, 0, 0, 0, 0, 0, 0, 1, 0, 0, 0, 0, 0, 0, 0, 0, 0, 1
      |0, 0, 0, 1, 0, 0, 0, 0, 0, 0, 0, 0, 0, 0, 0, 0, 0, 0, 0, 0, 1, 0, 0, 0, 0, 0
      |0, 0, 0, 0, 0, 0, 0, 1, 0, 0, 0, 0, 0, 1, 0, 0, 0, 0, 0, 0, 0, 0, 0, 0, 0, 0
      |0, 0, 0, 0, 0, 0, 0, 0, 0, 0, 0, 0, 0, 0, 0, 0, 0, 0, 0, 0, 0, 0, 0, 1, 0, 0
      |0, 1, 0, 0, 0, 0, 0, 0, 0, 0, 0, 1, 0, 0, 0, 0, 0, 0, 0, 0, 0, 0, 1, 0, 0, 0
      |0, 0, 0, 0, 1, 0, 0, 0, 0, 0, 0, 0, 0, 0, 0, 0, 0, 0, 1, 0, 1, 0, 0, 1, 0, 0
      |0, 0, 0, 0, 0, 0, 0, 0, 0, 1, 0, 0, 0, 0, 0, 0, 0, 0, 0, 0, 0, 0, 0, 0, 0, 0
      |0, 0, 0, 0, 0, 0, 0, 0, 0, 0, 0, 0, 0, 0, 0, 0, 0, 0, 0, 0, 0, 0, 0, 0, 0, 1
      |0, 0, 0, 0, 0, 0, 0, 0, 0, 0, 0, 0, 0, 0, 0, 0, 0, 0, 1, 0, 0, 0, 0, 0, 0, 0
      |0, 0, 1, 0, 1, 0, 0, 0, 0, 0, 0, 0, 0, 0, 1, 0, 0, 1, 0, 0, 0, 0, 0, 0, 0, 0
      |0, 0, 0, 0, 0, 0, 1, 0, 0, 0, 0, 0, 0, 0, 0, 0, 0, 0, 0, 0, 1, 0, 0, 0, 0, 0
      |0, 0, 0, 0, 1, 0, 0, 0, 0, 0, 1, 0, 0, 0, 1, 0, 0, 0, 0, 1, 0, 0, 0, 1, 0, 0
      |0, 0, 0, 0, 0, 0, 0, 0, 0, 0, 0, 0, 0, 0, 0, 0, 0, 0, 0, 0, 0, 0, 1, 0, 0, 0
      |0, 0, 0, 1, 0, 0, 0, 0, 0, 0, 0, 0, 0, 1, 0, 0, 0, 0, 0, 0, 0, 1, 0, 0, 1, 0
      |1, 0, 0, 0, 0, 0, 0, 0, 0, 0, 0, 0, 1, 0, 1, 0, 0, 0, 0, 0, 1, 0, 0, 0, 0, 0
      |1, 1, 0, 0, 1, 0, 0, 0, 1, 0, 0, 0, 0, 0, 0, 0, 0, 0, 0, 0, 0, 0, 1, 0, 0, 0
      |1, 0, 0, 0, 0, 0, 0, 0, 0, 1, 0, 0, 0, 0, 0, 0, 1, 0, 0, 0, 0, 0, 0, 0, 0, 0
      |];

% Weights matrix (edge weights)
% Weights = [|0, 0, 0, 0, 0, 0, 0, 0, 3, 0, 0, 0, 0, 0, 0, 0, 0, 0, 0, 0, 0, 0, 0, 5, 2, 2
%           |0, 0, 0, 0, 0, 0, 0, 0, 0, 0, 0, 0, 0, 1, 0, 0, 0, 0, 0, 0, 0, 0, 0, 0, 4, 0
%           |0, 0, 0, 0, 0, 0, 0, 0, 0, 1, 0, 0, 0, 0, 0, 0, 0, 0, 3, 0, 0, 0, 0, 0, 0, 0
%           |0, 0, 0, 0, 0, 0, 0, 0, 0, 0, 3, 0, 0, 0, 0, 0, 0, 0, 0, 0, 0, 0, 5, 0, 0, 0
%           |0, 0, 0, 0, 0, 0, 0, 0, 0, 0, 0, 0, 0, 0, 3, 0, 0, 0, 1, 0, 4, 0, 0, 0, 2, 0
%           |0, 0, 0, 0, 0, 0, 0, 5, 0, 0, 0, 0, 0, 0, 0, 0, 0, 0, 0, 0, 0, 0, 0, 0, 0, 0
%           |0, 0, 0, 0, 0, 0, 0, 0, 0, 0, 0, 0, 0, 0, 0, 0, 0, 0, 0, 1, 0, 0, 0, 0, 0, 0
%           |0, 0, 0, 0, 0, 5, 0, 0, 0, 0, 0, 5, 0, 0, 0, 0, 0, 0, 0, 0, 0, 0, 0, 0, 0, 0
%           |3, 0, 0, 0, 0, 0, 0, 0, 0, 0, 0, 0, 0, 0, 0, 0, 0, 0, 0, 0, 0, 0, 0, 0, 5, 0
%           |0, 0, 1, 0, 0, 0, 0, 0, 0, 0, 0, 0, 0, 0, 0, 3, 0, 0, 0, 0, 0, 0, 0, 0, 0, 4
%           |0, 0, 0, 3, 0, 0, 0, 0, 0, 0, 0, 0, 0, 0, 0, 0, 0, 0, 0, 0, 4, 0, 0, 0, 0, 0
%           |0, 0, 0, 0, 0, 0, 0, 5, 0, 0, 0, 0, 0, 5, 0, 0, 0, 0, 0, 0, 0, 0, 0, 0, 0, 0
%           |0, 0, 0, 0, 0, 0, 0, 0, 0, 0, 0, 0, 0, 0, 0, 0, 0, 0, 0, 0, 0, 0, 0, 2, 0, 0
%           |0, 1, 0, 0, 0, 0, 0, 0, 0, 0, 0, 5, 0, 0, 0, 0, 0, 0, 0, 0, 0, 0, 2, 0, 0, 0
%           |0, 0, 0, 0, 3, 0, 0, 0, 0, 0, 0, 0, 0, 0, 0, 0, 0, 0, 5, 0, 5, 0, 0, 3, 0, 0
%           |0, 0, 0, 0, 0, 0, 0, 0, 0, 3, 0, 0, 0, 0, 0, 0, 0, 0, 0, 0, 0, 0, 0, 0, 0, 0
%           |0, 0, 0, 0, 0, 0, 0, 0, 0, 0, 0, 0, 0, 0, 0, 0, 0, 0, 0, 0, 0, 0, 0, 0, 0, 4
%           |0, 0, 0, 0, 0, 0, 0, 0, 0, 0, 0, 0, 0, 0, 0, 0, 0, 0, 2, 0, 0, 0, 0, 0, 0, 0
%           |0, 0, 3, 0, 1, 0, 0, 0, 0, 0, 0, 0, 0, 0, 5, 0, 0, 2, 0, 0, 0, 0, 0, 0, 0, 0
%           |0, 0, 0, 0, 0, 0, 1, 0, 0, 0, 0, 0, 0, 0, 0, 0, 0, 0, 0, 0, 2, 0, 0, 0, 0, 0
%           |0, 0, 0, 0, 4, 0, 0, 0, 0, 0, 4, 0, 0, 0, 5, 0, 0, 0, 0, 2, 0, 0, 0, 4, 0, 0
%           |0, 0, 0, 0, 0, 0, 0, 0, 0, 0, 0, 0, 0, 0, 0, 0, 0, 0, 0, 0, 0, 0, 4, 0, 0, 0
%           |0, 0, 0, 5, 0, 0, 0, 0, 0, 0, 0, 0, 0, 2, 0, 0, 0, 0, 0, 0, 0, 4, 0, 0, 5, 0
%           |5, 0, 0, 0, 0, 0, 0, 0, 0, 0, 0, 0, 2, 0, 3, 0, 0, 0, 0, 0, 4, 0, 0, 0, 0, 0
%           |2, 4, 0, 0, 2, 0, 0, 0, 5, 0, 0, 0, 0, 0, 0, 0, 0, 0, 0, 0, 0, 0, 5, 0, 0, 0
%           |2, 0, 0, 0, 0, 0, 0, 0, 0, 4, 0, 0, 0, 0, 0, 0, 4, 0, 0, 0, 0, 0, 0, 0, 0, 0
%           |];

% Distance matrix
Dist = [|0, 6, 7, 12, 4, 22, 11, 17, 3, 6, 12, 12, 7, 7, 7, 9, 6, 7, 5, 10, 8, 11, 7, 5, 2, 2
      |6, 0, 10, 8, 6, 16, 13, 11, 9, 11, 11, 6, 13, 1, 9, 14, 12, 9, 7, 12, 10, 7, 3, 11, 4, 8
      |7, 10, 0, 15, 4, 26, 11, 21, 10, 1, 12, 16, 12, 11, 7, 4, 9, 5, 3, 10, 8, 15, 11, 10, 6, 5
      |12, 8, 15, 0, 11, 22, 10, 17, 15, 16, 3, 12, 13, 7, 12, 19, 18, 14, 12, 9, 7, 9, 5, 11, 10, 14
      |4, 6, 4, 11, 0, 22, 7, 17, 7, 5, 8, 12, 8, 7, 3, 8, 10, 3, 1, 6, 4, 11, 7, 6, 2, 6
      |22, 16, 26, 22, 22, 0, 29, 5, 25, 27, 25, 10, 29, 15, 25, 30, 28, 25, 23, 28, 26, 21, 17, 27, 20, 24
      |11, 13, 11, 10, 7, 29, 0, 24, 14, 12, 7, 19, 9, 14, 8, 15, 17, 10, 8, 1, 3, 18, 14, 7, 9, 13
      |17, 11, 21, 17, 17, 5, 24, 0, 20, 22, 20, 5, 24, 10, 20, 25, 23, 20, 18, 23, 21, 16, 12, 22, 15, 19
      |3, 9, 10, 15, 7, 25, 14, 20, 0, 9, 15, 15, 10, 10, 10, 12, 9, 10, 8, 13, 11, 14, 10, 8, 5, 5
      |6, 11, 1, 16, 5, 27, 12, 22, 9, 0, 13, 17, 13, 12, 8, 3, 8, 6, 4, 11, 9, 16, 12, 11, 7, 4
      |12, 11, 12, 3, 8, 25, 7, 20, 15, 13, 0, 15, 10, 10, 9, 16, 18, 11, 9, 6, 4, 12, 8, 8, 10, 14
      |12, 6, 16, 12, 12, 10, 19, 5, 15, 17, 15, 0, 19, 5, 15, 20, 18, 15, 13, 18, 16, 11, 7, 17, 10, 14
      |7, 13, 12, 13, 8, 29, 9, 24, 10, 13, 10, 19, 0, 14, 5, 16, 13, 11, 9, 8, 6, 18, 14, 2, 9, 9
      |7, 1, 11, 7, 7, 15, 14, 10, 10, 12, 10, 5, 14, 0, 10, 15, 13, 10, 8, 13, 11, 6, 2, 12, 5, 9
      |7, 9, 7, 12, 3, 25, 8, 20, 10, 8, 9, 15, 5, 10, 0, 11, 13, 6, 4, 7, 5, 14, 10, 3, 5, 9
      |9, 14, 4, 19, 8, 30, 15, 25, 12, 3, 16, 20, 16, 15, 11, 0, 11, 9, 7, 14, 12, 19, 15, 14, 10, 7
      |6, 12, 9, 18, 10, 28, 17, 23, 9, 8, 18, 18, 13, 13, 13, 11, 0, 13, 11, 16, 14, 17, 13, 11, 8, 4
      |7, 9, 5, 14, 3, 25, 10, 20, 10, 6, 11, 15, 11, 10, 6, 9, 13, 0, 2, 9, 7, 14, 10, 9, 5, 9
      |5, 7, 3, 12, 1, 23, 8, 18, 8, 4, 9, 13, 9, 8, 4, 7, 11, 2, 0, 7, 5, 12, 8, 7, 3, 7
      |10, 12, 10, 9, 6, 28, 1, 23, 13, 11, 6, 18, 8, 13, 7, 14, 16, 9, 7, 0, 2, 17, 13, 6, 8, 12
      |8, 10, 8, 7, 4, 26, 3, 21, 11, 9, 4, 16, 6, 11, 5, 12, 14, 7, 5, 2, 0, 15, 11, 4, 6, 10
      |11, 7, 15, 9, 11, 21, 18, 16, 14, 16, 12, 11, 18, 6, 14, 19, 17, 14, 12, 17, 15, 0, 4, 16, 9, 13
      |7, 3, 11, 5, 7, 17, 14, 12, 10, 12, 8, 7, 14, 2, 10, 15, 13, 10, 8, 13, 11, 4, 0, 12, 5, 9
      |5, 11, 10, 11, 6, 27, 7, 22, 8, 11, 8, 17, 2, 12, 3, 14, 11, 9, 7, 6, 4, 16, 12, 0, 7, 7
      |2, 4, 6, 10, 2, 20, 9, 15, 5, 7, 10, 10, 9, 5, 5, 10, 8, 5, 3, 8, 6, 9, 5, 7, 0, 4
      |2, 8, 5, 14, 6, 24, 13, 19, 5, 4, 14, 14, 9, 9, 9, 7, 4, 9, 7, 12, 10, 13, 9, 7, 4, 0
      |];

% Initial object distribution
S_init = [0, 0, 0, 0, 1, 0, 0, 1, 0, 1, 0, 0, 0, 0, 0, 0, 0, 1, 0, 0, 0, 0, 1, 0, 1, 0];

% Target nodes (1 if target, 0 otherwise)
T = [1, 0, 0, 0, 0, 0, 0, 0, 0, 0, 0, 1, 0, 1, 0, 0, 0, 0, 1, 0, 1, 1, 0, 0, 0, 0];

% Initial truck position (1-based indexing)
u = 22;

% --- DEBUG TRACE ---
% --- GENERATION TRACE (Backwards from Target) ---
% Initial distribution (all on targets): [1, 0, 0, 0, 0, 0, 0, 0, 0, 0, 0, 1, 0, 1, 0, 0, 0, 0, 1, 0, 1, 1, 0, 0, 0, 0]
% Step 1: Selected target node 19 (has 1 objects)
% Step 1: Moved object 19 -> 18
% Step 1: Distribution: [1, 0, 0, 0, 0, 0, 0, 0, 0, 0, 0, 1, 0, 1, 0, 0, 0, 1, 0, 0, 1, 1, 0, 0, 0, 0]
% Step 2: Selected target node 21 (has 1 objects)
% Step 2: Moved object 21 -> 5
% Step 2: Distribution: [1, 0, 0, 0, 1, 0, 0, 0, 0, 0, 0, 1, 0, 1, 0, 0, 0, 1, 0, 0, 0, 1, 0, 0, 0, 0]
% Step 3: Selected target node 14 (has 1 objects)
% Step 3: Moved object 14 -> 2
% Step 3: Distribution: [1, 1, 0, 0, 1, 0, 0, 0, 0, 0, 0, 1, 0, 0, 0, 0, 0, 1, 0, 0, 0, 1, 0, 0, 0, 0]
% Step 4: Selected target node 1 (has 1 objects)
% Step 4: Moved object 1 -> 26
% Step 4: Distribution: [0, 1, 0, 0, 1, 0, 0, 0, 0, 0, 0, 1, 0, 0, 0, 0, 0, 1, 0, 0, 0, 1, 0, 0, 0, 1]
% Step 5: Selected target node 12 (has 1 objects)
% Step 5: Moved object 12 -> 8
% Step 5: Distribution: [0, 1, 0, 0, 1, 0, 0, 1, 0, 0, 0, 0, 0, 0, 0, 0, 0, 1, 0, 0, 0, 1, 0, 0, 0, 1]
% Step 6: Selected target node 22 (has 1 objects)
% Step 6: Moved object 22 -> 23
% Step 6: Distribution: [0, 1, 0, 0, 1, 0, 0, 1, 0, 0, 0, 0, 0, 0, 0, 0, 0, 1, 0, 0, 0, 0, 1, 0, 0, 1]
% Step 7: Selected non-target node 2 (has 1 objects)
% Step 7: Avoiding backtrack to node 14
% Step 7: Moved object 2 -> 25
% Step 7: Distribution: [0, 0, 0, 0, 1, 0, 0, 1, 0, 0, 0, 0, 0, 0, 0, 0, 0, 1, 0, 0, 0, 0, 1, 0, 1, 1]
% Step 8: Selected non-target node 18 (has 1 objects)
% Step 8: Selected non-target node 26 (has 1 objects)
% Step 8: Avoiding backtrack to node 1
% Step 8: Moved object 26 -> 10
% Step 8: Distribution: [0, 0, 0, 0, 1, 0, 0, 1, 0, 1, 0, 0, 0, 0, 0, 0, 0, 1, 0, 0, 0, 0, 1, 0, 1, 0]
% Truck starting position: 22
