% instance_n10_c0_k14_i3.dzn
% Generated instance for the Trucks problem
% N=10, h=3, k=14

% Number of nodes
N = 10;

% Number of objects
h = 3;

% Maximum plan length
%k = 14;

% Adjacency matrix (0-based internal, will be converted to 1-based)
Adj = [|0, 0, 0, 1, 1, 0, 0, 0, 0, 0
      |0, 0, 0, 0, 0, 0, 1, 0, 1, 0
      |0, 0, 0, 1, 1, 0, 0, 0, 1, 0
      |1, 0, 1, 0, 0, 0, 0, 0, 0, 0
      |1, 0, 1, 0, 0, 0, 0, 1, 0, 1
      |0, 0, 0, 0, 0, 0, 1, 1, 0, 0
      |0, 1, 0, 0, 0, 1, 0, 0, 0, 0
      |0, 0, 0, 0, 1, 1, 0, 0, 0, 0
      |0, 1, 1, 0, 0, 0, 0, 0, 0, 0
      |0, 0, 0, 0, 1, 0, 0, 0, 0, 0
      |];

% Weights matrix (edge weights)
% Weights = [|0, 0, 0, 5, 5, 0, 0, 0, 0, 0
%           |0, 0, 0, 0, 0, 0, 4, 0, 3, 0
%           |0, 0, 0, 5, 2, 0, 0, 0, 3, 0
%           |5, 0, 5, 0, 0, 0, 0, 0, 0, 0
%           |5, 0, 2, 0, 0, 0, 0, 5, 0, 3
%           |0, 0, 0, 0, 0, 0, 5, 5, 0, 0
%           |0, 4, 0, 0, 0, 5, 0, 0, 0, 0
%           |0, 0, 0, 0, 5, 5, 0, 0, 0, 0
%           |0, 3, 3, 0, 0, 0, 0, 0, 0, 0
%           |0, 0, 0, 0, 3, 0, 0, 0, 0, 0
%           |];

% Distance matrix
Dist = [|0, 13, 7, 5, 5, 15, 17, 10, 10, 8
      |13, 0, 6, 11, 8, 9, 4, 13, 3, 11
      |7, 6, 0, 5, 2, 12, 10, 7, 3, 5
      |5, 11, 5, 0, 7, 17, 15, 12, 8, 10
      |5, 8, 2, 7, 0, 10, 12, 5, 5, 3
      |15, 9, 12, 17, 10, 0, 5, 5, 12, 13
      |17, 4, 10, 15, 12, 5, 0, 10, 7, 15
      |10, 13, 7, 12, 5, 5, 10, 0, 10, 8
      |10, 3, 3, 8, 5, 12, 7, 10, 0, 8
      |8, 11, 5, 10, 3, 13, 15, 8, 8, 0
      |];

% Initial object distribution
S_init = [0, 1, 0, 0, 0, 0, 0, 1, 0, 1];

% Target nodes (1 if target, 0 otherwise)
T = [0, 0, 1, 0, 1, 1, 0, 0, 0, 0];

% Initial truck position (1-based indexing)
u = 1;

% --- DEBUG TRACE ---
% --- GENERATION TRACE (Backwards from Target) ---
% Initial distribution (all on targets): [0, 0, 1, 0, 1, 1, 0, 0, 0, 0]
% Step 1: Selected target node 6 (has 1 objects)
% Step 1: Moved object 6 -> 8
% Step 1: Distribution: [0, 0, 1, 0, 1, 0, 0, 1, 0, 0]
% Step 2: Selected target node 5 (has 1 objects)
% Step 2: Moved object 5 -> 10
% Step 2: Distribution: [0, 0, 1, 0, 0, 0, 0, 1, 0, 1]
% Step 3: Selected target node 3 (has 1 objects)
% Step 3: Moved object 3 -> 9
% Step 3: Distribution: [0, 0, 0, 0, 0, 0, 0, 1, 1, 1]
% Step 4: Selected non-target node 8 (has 1 objects)
% Step 4: Selected non-target node 9 (has 1 objects)
% Step 4: Avoiding backtrack to node 3
% Step 4: Moved object 9 -> 2
% Step 4: Distribution: [0, 1, 0, 0, 0, 0, 0, 1, 0, 1]
% Step 5: Selected non-target node 10 (has 1 objects)
% Step 5: Selected non-target node 2 (has 1 objects)
% Step 5: Avoiding backtrack to node 9
% Step 5: Moved object 2 -> 7
% Step 5: Distribution: [0, 0, 0, 0, 0, 0, 1, 1, 0, 1]
% Step 6: Selected non-target node 8 (has 1 objects)
% Step 6: Selected non-target node 10 (has 1 objects)
% Step 6: Selected non-target node 7 (has 1 objects)
% Step 6: Moved object 7 -> 2
% Step 6: Distribution: [0, 1, 0, 0, 0, 0, 0, 1, 0, 1]
% Step 7: Selected non-target node 2 (has 1 objects)
% Step 7: Avoiding backtrack to node 7
% Step 7: Moved object 2 -> 9
% Step 7: Distribution: [0, 0, 0, 0, 0, 0, 0, 1, 1, 1]
% Step 8: Selected non-target node 10 (has 1 objects)
% Step 8: Selected non-target node 9 (has 1 objects)
% Step 8: Moved object 9 -> 2
% Step 8: Distribution: [0, 1, 0, 0, 0, 0, 0, 1, 0, 1]
% Step 9: Selected non-target node 10 (has 1 objects)
% Step 9: Selected non-target node 8 (has 1 objects)
% Step 9: Selected non-target node 2 (has 1 objects)
% Step 9: Avoiding backtrack to node 9
% Step 9: Moved object 2 -> 7
% Step 9: Distribution: [0, 0, 0, 0, 0, 0, 1, 1, 0, 1]
% Step 10: Selected non-target node 10 (has 1 objects)
% Step 10: Selected non-target node 8 (has 1 objects)
% Step 10: Selected non-target node 7 (has 1 objects)
% Step 10: Moved object 7 -> 2
% Step 10: Distribution: [0, 1, 0, 0, 0, 0, 0, 1, 0, 1]
% Step 11: Selected non-target node 10 (has 1 objects)
% Step 11: Selected non-target node 8 (has 1 objects)
% Step 11: Selected non-target node 2 (has 1 objects)
% Step 11: Avoiding backtrack to node 7
% Step 11: Moved object 2 -> 9
% Step 11: Distribution: [0, 0, 0, 0, 0, 0, 0, 1, 1, 1]
% Step 12: Selected non-target node 10 (has 1 objects)
% Step 12: Selected non-target node 8 (has 1 objects)
% Step 12: Selected non-target node 9 (has 1 objects)
% Step 12: Moved object 9 -> 2
% Step 12: Distribution: [0, 1, 0, 0, 0, 0, 0, 1, 0, 1]
% Step 13: Selected non-target node 2 (has 1 objects)
% Step 13: Avoiding backtrack to node 9
% Step 13: Moved object 2 -> 7
% Step 13: Distribution: [0, 0, 0, 0, 0, 0, 1, 1, 0, 1]
% Step 14: Selected non-target node 8 (has 1 objects)
% Step 14: Selected non-target node 7 (has 1 objects)
% Step 14: Moved object 7 -> 2
% Step 14: Distribution: [0, 1, 0, 0, 0, 0, 0, 1, 0, 1]
% Truck starting position: 1
