% instance_n26_c3_k14_i98.dzn
% Generated instance for the Trucks problem
% N=26, h=6, k=14

% Number of nodes
N = 26;

% Number of objects
h = 6;

% Maximum plan length
%k = 14;

% Adjacency matrix (0-based internal, will be converted to 1-based)
Adj = [|0, 0, 0, 0, 0, 0, 0, 1, 0, 0, 0, 0, 0, 0, 1, 0, 0, 0, 0, 0, 0, 0, 0, 0, 0, 1
      |0, 0, 0, 0, 0, 0, 0, 1, 0, 0, 0, 0, 0, 0, 0, 0, 0, 0, 0, 1, 0, 0, 0, 0, 1, 0
      |0, 0, 0, 0, 0, 0, 1, 0, 0, 0, 0, 0, 1, 0, 1, 0, 1, 0, 1, 0, 0, 0, 0, 0, 0, 0
      |0, 0, 0, 0, 0, 0, 0, 0, 0, 0, 0, 0, 1, 0, 0, 0, 0, 0, 0, 0, 0, 0, 0, 0, 0, 0
      |0, 0, 0, 0, 0, 0, 0, 0, 0, 0, 0, 0, 0, 0, 1, 0, 0, 0, 0, 0, 0, 0, 0, 0, 0, 0
      |0, 0, 0, 0, 0, 0, 0, 0, 0, 0, 0, 0, 0, 0, 0, 0, 0, 0, 0, 0, 1, 0, 0, 0, 1, 0
      |0, 0, 1, 0, 0, 0, 0, 0, 0, 0, 0, 0, 0, 0, 0, 0, 1, 0, 0, 0, 0, 0, 0, 0, 0, 0
      |1, 1, 0, 0, 0, 0, 0, 0, 0, 1, 0, 1, 0, 0, 0, 0, 0, 0, 0, 0, 0, 1, 0, 0, 0, 0
      |0, 0, 0, 0, 0, 0, 0, 0, 0, 0, 0, 0, 0, 0, 0, 0, 0, 1, 0, 0, 0, 0, 1, 0, 0, 0
      |0, 0, 0, 0, 0, 0, 0, 1, 0, 0, 0, 0, 0, 0, 0, 0, 1, 1, 0, 0, 0, 0, 0, 0, 0, 0
      |0, 0, 0, 0, 0, 0, 0, 0, 0, 0, 0, 1, 0, 0, 0, 0, 0, 0, 0, 0, 0, 0, 0, 1, 0, 0
      |0, 0, 0, 0, 0, 0, 0, 1, 0, 0, 1, 0, 0, 1, 0, 0, 0, 0, 1, 0, 0, 0, 0, 0, 0, 0
      |0, 0, 1, 1, 0, 0, 0, 0, 0, 0, 0, 0, 0, 0, 0, 0, 0, 0, 0, 0, 0, 0, 0, 0, 0, 1
      |0, 0, 0, 0, 0, 0, 0, 0, 0, 0, 0, 1, 0, 0, 0, 1, 0, 0, 0, 1, 0, 0, 0, 0, 0, 0
      |1, 0, 1, 0, 1, 0, 0, 0, 0, 0, 0, 0, 0, 0, 0, 0, 0, 0, 0, 0, 0, 0, 0, 1, 0, 0
      |0, 0, 0, 0, 0, 0, 0, 0, 0, 0, 0, 0, 0, 1, 0, 0, 0, 0, 0, 0, 0, 0, 0, 0, 0, 0
      |0, 0, 1, 0, 0, 0, 1, 0, 0, 1, 0, 0, 0, 0, 0, 0, 0, 0, 0, 0, 0, 0, 0, 0, 0, 0
      |0, 0, 0, 0, 0, 0, 0, 0, 1, 1, 0, 0, 0, 0, 0, 0, 0, 0, 0, 0, 0, 0, 0, 0, 0, 0
      |0, 0, 1, 0, 0, 0, 0, 0, 0, 0, 0, 1, 0, 0, 0, 0, 0, 0, 0, 0, 0, 0, 0, 0, 0, 1
      |0, 1, 0, 0, 0, 0, 0, 0, 0, 0, 0, 0, 0, 1, 0, 0, 0, 0, 0, 0, 1, 0, 0, 0, 0, 0
      |0, 0, 0, 0, 0, 1, 0, 0, 0, 0, 0, 0, 0, 0, 0, 0, 0, 0, 0, 1, 0, 0, 0, 0, 0, 0
      |0, 0, 0, 0, 0, 0, 0, 1, 0, 0, 0, 0, 0, 0, 0, 0, 0, 0, 0, 0, 0, 0, 0, 0, 0, 0
      |0, 0, 0, 0, 0, 0, 0, 0, 1, 0, 0, 0, 0, 0, 0, 0, 0, 0, 0, 0, 0, 0, 0, 0, 0, 0
      |0, 0, 0, 0, 0, 0, 0, 0, 0, 0, 1, 0, 0, 0, 1, 0, 0, 0, 0, 0, 0, 0, 0, 0, 0, 0
      |0, 1, 0, 0, 0, 1, 0, 0, 0, 0, 0, 0, 0, 0, 0, 0, 0, 0, 0, 0, 0, 0, 0, 0, 0, 0
      |1, 0, 0, 0, 0, 0, 0, 0, 0, 0, 0, 0, 1, 0, 0, 0, 0, 0, 1, 0, 0, 0, 0, 0, 0, 0
      |];

% Weights matrix (edge weights)
% Weights = [|0, 0, 0, 0, 0, 0, 0, 1, 0, 0, 0, 0, 0, 0, 4, 0, 0, 0, 0, 0, 0, 0, 0, 0, 0, 3
%           |0, 0, 0, 0, 0, 0, 0, 3, 0, 0, 0, 0, 0, 0, 0, 0, 0, 0, 0, 5, 0, 0, 0, 0, 3, 0
%           |0, 0, 0, 0, 0, 0, 5, 0, 0, 0, 0, 0, 3, 0, 4, 0, 4, 0, 2, 0, 0, 0, 0, 0, 0, 0
%           |0, 0, 0, 0, 0, 0, 0, 0, 0, 0, 0, 0, 1, 0, 0, 0, 0, 0, 0, 0, 0, 0, 0, 0, 0, 0
%           |0, 0, 0, 0, 0, 0, 0, 0, 0, 0, 0, 0, 0, 0, 4, 0, 0, 0, 0, 0, 0, 0, 0, 0, 0, 0
%           |0, 0, 0, 0, 0, 0, 0, 0, 0, 0, 0, 0, 0, 0, 0, 0, 0, 0, 0, 0, 1, 0, 0, 0, 3, 0
%           |0, 0, 5, 0, 0, 0, 0, 0, 0, 0, 0, 0, 0, 0, 0, 0, 4, 0, 0, 0, 0, 0, 0, 0, 0, 0
%           |1, 3, 0, 0, 0, 0, 0, 0, 0, 2, 0, 2, 0, 0, 0, 0, 0, 0, 0, 0, 0, 3, 0, 0, 0, 0
%           |0, 0, 0, 0, 0, 0, 0, 0, 0, 0, 0, 0, 0, 0, 0, 0, 0, 2, 0, 0, 0, 0, 4, 0, 0, 0
%           |0, 0, 0, 0, 0, 0, 0, 2, 0, 0, 0, 0, 0, 0, 0, 0, 2, 2, 0, 0, 0, 0, 0, 0, 0, 0
%           |0, 0, 0, 0, 0, 0, 0, 0, 0, 0, 0, 5, 0, 0, 0, 0, 0, 0, 0, 0, 0, 0, 0, 3, 0, 0
%           |0, 0, 0, 0, 0, 0, 0, 2, 0, 0, 5, 0, 0, 5, 0, 0, 0, 0, 3, 0, 0, 0, 0, 0, 0, 0
%           |0, 0, 3, 1, 0, 0, 0, 0, 0, 0, 0, 0, 0, 0, 0, 0, 0, 0, 0, 0, 0, 0, 0, 0, 0, 2
%           |0, 0, 0, 0, 0, 0, 0, 0, 0, 0, 0, 5, 0, 0, 0, 1, 0, 0, 0, 1, 0, 0, 0, 0, 0, 0
%           |4, 0, 4, 0, 4, 0, 0, 0, 0, 0, 0, 0, 0, 0, 0, 0, 0, 0, 0, 0, 0, 0, 0, 1, 0, 0
%           |0, 0, 0, 0, 0, 0, 0, 0, 0, 0, 0, 0, 0, 1, 0, 0, 0, 0, 0, 0, 0, 0, 0, 0, 0, 0
%           |0, 0, 4, 0, 0, 0, 4, 0, 0, 2, 0, 0, 0, 0, 0, 0, 0, 0, 0, 0, 0, 0, 0, 0, 0, 0
%           |0, 0, 0, 0, 0, 0, 0, 0, 2, 2, 0, 0, 0, 0, 0, 0, 0, 0, 0, 0, 0, 0, 0, 0, 0, 0
%           |0, 0, 2, 0, 0, 0, 0, 0, 0, 0, 0, 3, 0, 0, 0, 0, 0, 0, 0, 0, 0, 0, 0, 0, 0, 5
%           |0, 5, 0, 0, 0, 0, 0, 0, 0, 0, 0, 0, 0, 1, 0, 0, 0, 0, 0, 0, 3, 0, 0, 0, 0, 0
%           |0, 0, 0, 0, 0, 1, 0, 0, 0, 0, 0, 0, 0, 0, 0, 0, 0, 0, 0, 3, 0, 0, 0, 0, 0, 0
%           |0, 0, 0, 0, 0, 0, 0, 3, 0, 0, 0, 0, 0, 0, 0, 0, 0, 0, 0, 0, 0, 0, 0, 0, 0, 0
%           |0, 0, 0, 0, 0, 0, 0, 0, 4, 0, 0, 0, 0, 0, 0, 0, 0, 0, 0, 0, 0, 0, 0, 0, 0, 0
%           |0, 0, 0, 0, 0, 0, 0, 0, 0, 0, 3, 0, 0, 0, 1, 0, 0, 0, 0, 0, 0, 0, 0, 0, 0, 0
%           |0, 3, 0, 0, 0, 3, 0, 0, 0, 0, 0, 0, 0, 0, 0, 0, 0, 0, 0, 0, 0, 0, 0, 0, 0, 0
%           |3, 0, 0, 0, 0, 0, 0, 0, 0, 0, 0, 0, 2, 0, 0, 0, 0, 0, 5, 0, 0, 0, 0, 0, 0, 0
%           |];

% Distance matrix
Dist = [|0, 4, 8, 6, 8, 10, 9, 1, 7, 3, 8, 3, 5, 8, 4, 9, 5, 5, 6, 9, 11, 4, 11, 5, 7, 3
      |4, 0, 10, 10, 12, 6, 11, 3, 9, 5, 10, 5, 9, 6, 8, 7, 7, 7, 8, 5, 7, 6, 13, 9, 3, 7
      |8, 10, 0, 4, 8, 15, 5, 7, 10, 6, 8, 5, 3, 10, 4, 11, 4, 8, 2, 11, 14, 10, 14, 5, 13, 5
      |6, 10, 4, 0, 12, 16, 9, 7, 13, 9, 12, 9, 1, 14, 8, 15, 8, 11, 6, 15, 17, 10, 17, 9, 13, 3
      |8, 12, 8, 12, 0, 18, 13, 9, 15, 11, 8, 11, 11, 16, 4, 17, 12, 13, 10, 17, 19, 12, 19, 5, 15, 11
      |10, 6, 15, 16, 18, 0, 17, 9, 15, 11, 15, 10, 15, 5, 14, 6, 13, 13, 13, 4, 1, 12, 19, 15, 3, 13
      |9, 11, 5, 9, 13, 17, 0, 8, 10, 6, 13, 10, 8, 15, 9, 16, 4, 8, 7, 16, 18, 11, 14, 10, 14, 10
      |1, 3, 7, 7, 9, 9, 8, 0, 6, 2, 7, 2, 6, 7, 5, 8, 4, 4, 5, 8, 10, 3, 10, 6, 6, 4
      |7, 9, 10, 13, 15, 15, 10, 6, 0, 4, 13, 8, 12, 13, 11, 14, 6, 2, 11, 14, 16, 9, 4, 12, 12, 10
      |3, 5, 6, 9, 11, 11, 6, 2, 4, 0, 9, 4, 8, 9, 7, 10, 2, 2, 7, 10, 12, 5, 8, 8, 8, 6
      |8, 10, 8, 12, 8, 15, 13, 7, 13, 9, 0, 5, 11, 10, 4, 11, 11, 11, 8, 11, 14, 10, 17, 3, 13, 11
      |3, 5, 5, 9, 11, 10, 10, 2, 8, 4, 5, 0, 8, 5, 7, 6, 6, 6, 3, 6, 9, 5, 12, 8, 8, 6
      |5, 9, 3, 1, 11, 15, 8, 6, 12, 8, 11, 8, 0, 13, 7, 14, 7, 10, 5, 14, 16, 9, 16, 8, 12, 2
      |8, 6, 10, 14, 16, 5, 15, 7, 13, 9, 10, 5, 13, 0, 12, 1, 11, 11, 8, 1, 4, 10, 17, 13, 8, 11
      |4, 8, 4, 8, 4, 14, 9, 5, 11, 7, 4, 7, 7, 12, 0, 13, 8, 9, 6, 13, 15, 8, 15, 1, 11, 7
      |9, 7, 11, 15, 17, 6, 16, 8, 14, 10, 11, 6, 14, 1, 13, 0, 12, 12, 9, 2, 5, 11, 18, 14, 9, 12
      |5, 7, 4, 8, 12, 13, 4, 4, 6, 2, 11, 6, 7, 11, 8, 12, 0, 4, 6, 12, 14, 7, 10, 9, 10, 8
      |5, 7, 8, 11, 13, 13, 8, 4, 2, 2, 11, 6, 10, 11, 9, 12, 4, 0, 9, 12, 14, 7, 6, 10, 10, 8
      |6, 8, 2, 6, 10, 13, 7, 5, 11, 7, 8, 3, 5, 8, 6, 9, 6, 9, 0, 9, 12, 8, 15, 7, 11, 5
      |9, 5, 11, 15, 17, 4, 16, 8, 14, 10, 11, 6, 14, 1, 13, 2, 12, 12, 9, 0, 3, 11, 18, 14, 7, 12
      |11, 7, 14, 17, 19, 1, 18, 10, 16, 12, 14, 9, 16, 4, 15, 5, 14, 14, 12, 3, 0, 13, 20, 16, 4, 14
      |4, 6, 10, 10, 12, 12, 11, 3, 9, 5, 10, 5, 9, 10, 8, 11, 7, 7, 8, 11, 13, 0, 13, 9, 9, 7
      |11, 13, 14, 17, 19, 19, 14, 10, 4, 8, 17, 12, 16, 17, 15, 18, 10, 6, 15, 18, 20, 13, 0, 16, 16, 14
      |5, 9, 5, 9, 5, 15, 10, 6, 12, 8, 3, 8, 8, 13, 1, 14, 9, 10, 7, 14, 16, 9, 16, 0, 12, 8
      |7, 3, 13, 13, 15, 3, 14, 6, 12, 8, 13, 8, 12, 8, 11, 9, 10, 10, 11, 7, 4, 9, 16, 12, 0, 10
      |3, 7, 5, 3, 11, 13, 10, 4, 10, 6, 11, 6, 2, 11, 7, 12, 8, 8, 5, 12, 14, 7, 14, 8, 10, 0
      |];

% Initial object distribution
S_init = [0, 0, 0, 0, 1, 0, 1, 0, 0, 0, 0, 0, 0, 0, 0, 0, 1, 0, 0, 0, 2, 0, 0, 1, 0, 0];

% Target nodes (1 if target, 0 otherwise)
T = [0, 0, 0, 0, 1, 1, 0, 1, 0, 0, 0, 0, 0, 0, 1, 0, 0, 1, 0, 0, 0, 0, 0, 0, 1, 0];

% Initial truck position (1-based indexing)
u = 7;

% --- DEBUG TRACE ---
% --- GENERATION TRACE (Backwards from Target) ---
% Initial distribution (all on targets): [0, 0, 0, 0, 1, 1, 0, 1, 0, 0, 0, 0, 0, 0, 1, 0, 0, 1, 0, 0, 0, 0, 0, 0, 1, 0]
% Step 1: Selected target node 25 (has 1 objects)
% Step 1: Moved object 25 -> 2
% Step 1: Distribution: [0, 1, 0, 0, 1, 1, 0, 1, 0, 0, 0, 0, 0, 0, 1, 0, 0, 1, 0, 0, 0, 0, 0, 0, 0, 0]
% Step 2: Selected target node 8 (has 1 objects)
% Step 2: Moved object 8 -> 12
% Step 2: Distribution: [0, 1, 0, 0, 1, 1, 0, 0, 0, 0, 0, 1, 0, 0, 1, 0, 0, 1, 0, 0, 0, 0, 0, 0, 0, 0]
% Step 3: Selected target node 6 (has 1 objects)
% Step 3: Moved object 6 -> 21
% Step 3: Distribution: [0, 1, 0, 0, 1, 0, 0, 0, 0, 0, 0, 1, 0, 0, 1, 0, 0, 1, 0, 0, 1, 0, 0, 0, 0, 0]
% Step 4: Selected target node 18 (has 1 objects)
% Step 4: Moved object 18 -> 10
% Step 4: Distribution: [0, 1, 0, 0, 1, 0, 0, 0, 0, 1, 0, 1, 0, 0, 1, 0, 0, 0, 0, 0, 1, 0, 0, 0, 0, 0]
% Step 5: Selected target node 15 (has 1 objects)
% Step 5: Moved object 15 -> 3
% Step 5: Distribution: [0, 1, 1, 0, 1, 0, 0, 0, 0, 1, 0, 1, 0, 0, 0, 0, 0, 0, 0, 0, 1, 0, 0, 0, 0, 0]
% Step 6: Selected target node 5 (has 1 objects)
% Step 6: Selected non-target node 2 (has 1 objects)
% Step 6: Avoiding backtrack to node 25
% Step 6: Moved object 2 -> 20
% Step 6: Distribution: [0, 0, 1, 0, 1, 0, 0, 0, 0, 1, 0, 1, 0, 0, 0, 0, 0, 0, 0, 1, 1, 0, 0, 0, 0, 0]
% Step 7: Selected target node 5 (has 1 objects)
% Step 7: Selected non-target node 10 (has 1 objects)
% Step 7: Avoiding backtrack to node 18
% Step 7: Moved object 10 -> 17
% Step 7: Distribution: [0, 0, 1, 0, 1, 0, 0, 0, 0, 0, 0, 1, 0, 0, 0, 0, 1, 0, 0, 1, 1, 0, 0, 0, 0, 0]
% Step 8: Selected target node 5 (has 1 objects)
% Step 8: Selected non-target node 20 (has 1 objects)
% Step 8: Avoiding backtrack to node 2
% Step 8: Moved object 20 -> 21
% Step 8: Distribution: [0, 0, 1, 0, 1, 0, 0, 0, 0, 0, 0, 1, 0, 0, 0, 0, 1, 0, 0, 0, 2, 0, 0, 0, 0, 0]
% Step 9: Selected target node 5 (has 1 objects)
% Step 9: Selected non-target node 12 (has 1 objects)
% Step 9: Avoiding backtrack to node 8
% Step 9: Moved object 12 -> 11
% Step 9: Distribution: [0, 0, 1, 0, 1, 0, 0, 0, 0, 0, 1, 0, 0, 0, 0, 0, 1, 0, 0, 0, 2, 0, 0, 0, 0, 0]
% Step 10: Selected target node 5 (has 1 objects)
% Step 10: Selected non-target node 3 (has 1 objects)
% Step 10: Avoiding backtrack to node 15
% Step 10: Moved object 3 -> 7
% Step 10: Distribution: [0, 0, 0, 0, 1, 0, 1, 0, 0, 0, 1, 0, 0, 0, 0, 0, 1, 0, 0, 0, 2, 0, 0, 0, 0, 0]
% Step 11: Selected target node 5 (has 1 objects)
% Step 11: Selected non-target node 7 (has 1 objects)
% Step 11: Avoiding backtrack to node 3
% Step 11: Moved object 7 -> 17
% Step 11: Distribution: [0, 0, 0, 0, 1, 0, 0, 0, 0, 0, 1, 0, 0, 0, 0, 0, 2, 0, 0, 0, 2, 0, 0, 0, 0, 0]
% Step 12: Selected target node 5 (has 1 objects)
% Step 12: Selected non-target node 17 (has 2 objects)
% Step 12: Avoiding backtrack to node 7
% Step 12: Moved object 17 -> 3
% Step 12: Distribution: [0, 0, 1, 0, 1, 0, 0, 0, 0, 0, 1, 0, 0, 0, 0, 0, 1, 0, 0, 0, 2, 0, 0, 0, 0, 0]
% Step 13: Selected target node 5 (has 1 objects)
% Step 13: Selected non-target node 3 (has 1 objects)
% Step 13: Avoiding backtrack to node 17
% Step 13: Moved object 3 -> 7
% Step 13: Distribution: [0, 0, 0, 0, 1, 0, 1, 0, 0, 0, 1, 0, 0, 0, 0, 0, 1, 0, 0, 0, 2, 0, 0, 0, 0, 0]
% Step 14: Selected target node 5 (has 1 objects)
% Step 14: Selected non-target node 11 (has 1 objects)
% Step 14: Avoiding backtrack to node 12
% Step 14: Moved object 11 -> 24
% Step 14: Distribution: [0, 0, 0, 0, 1, 0, 1, 0, 0, 0, 0, 0, 0, 0, 0, 0, 1, 0, 0, 0, 2, 0, 0, 1, 0, 0]
% Truck starting position: 7
