% instance_n14_c3_k17_i39.dzn
% Generated instance for the Trucks problem
% N=14, h=3, k=17

% Number of nodes
N = 14;

% Number of objects
h = 3;

% Maximum plan length
%k = 17;

% Adjacency matrix (0-based internal, will be converted to 1-based)
Adj = [|0, 0, 0, 0, 0, 1, 0, 1, 0, 1, 0, 0, 0, 0
      |0, 0, 0, 1, 0, 0, 0, 1, 0, 1, 0, 0, 1, 0
      |0, 0, 0, 0, 0, 0, 0, 0, 0, 0, 1, 0, 0, 0
      |0, 1, 0, 0, 0, 0, 0, 0, 0, 0, 0, 0, 0, 0
      |0, 0, 0, 0, 0, 1, 0, 0, 0, 0, 0, 1, 0, 0
      |1, 0, 0, 0, 1, 0, 0, 0, 0, 0, 1, 1, 0, 0
      |0, 0, 0, 0, 0, 0, 0, 0, 0, 1, 0, 0, 0, 1
      |1, 1, 0, 0, 0, 0, 0, 0, 0, 1, 0, 0, 0, 0
      |0, 0, 0, 0, 0, 0, 0, 0, 0, 1, 0, 0, 0, 0
      |1, 1, 0, 0, 0, 0, 1, 1, 1, 0, 0, 0, 0, 1
      |0, 0, 1, 0, 0, 1, 0, 0, 0, 0, 0, 0, 0, 0
      |0, 0, 0, 0, 1, 1, 0, 0, 0, 0, 0, 0, 0, 0
      |0, 1, 0, 0, 0, 0, 0, 0, 0, 0, 0, 0, 0, 0
      |0, 0, 0, 0, 0, 0, 1, 0, 0, 1, 0, 0, 0, 0
      |];

% Weights matrix (edge weights)
% Weights = [|0, 0, 0, 0, 0, 3, 0, 1, 0, 3, 0, 0, 0, 0
%           |0, 0, 0, 1, 0, 0, 0, 4, 0, 4, 0, 0, 4, 0
%           |0, 0, 0, 0, 0, 0, 0, 0, 0, 0, 4, 0, 0, 0
%           |0, 1, 0, 0, 0, 0, 0, 0, 0, 0, 0, 0, 0, 0
%           |0, 0, 0, 0, 0, 2, 0, 0, 0, 0, 0, 2, 0, 0
%           |3, 0, 0, 0, 2, 0, 0, 0, 0, 0, 1, 5, 0, 0
%           |0, 0, 0, 0, 0, 0, 0, 0, 0, 5, 0, 0, 0, 4
%           |1, 4, 0, 0, 0, 0, 0, 0, 0, 1, 0, 0, 0, 0
%           |0, 0, 0, 0, 0, 0, 0, 0, 0, 1, 0, 0, 0, 0
%           |3, 4, 0, 0, 0, 0, 5, 1, 1, 0, 0, 0, 0, 1
%           |0, 0, 4, 0, 0, 1, 0, 0, 0, 0, 0, 0, 0, 0
%           |0, 0, 0, 0, 2, 5, 0, 0, 0, 0, 0, 0, 0, 0
%           |0, 4, 0, 0, 0, 0, 0, 0, 0, 0, 0, 0, 0, 0
%           |0, 0, 0, 0, 0, 0, 4, 0, 0, 1, 0, 0, 0, 0
%           |];

% Distance matrix
Dist = [|0, 5, 8, 6, 5, 3, 7, 1, 3, 2, 4, 7, 9, 3
      |5, 0, 13, 1, 10, 8, 9, 4, 5, 4, 9, 12, 4, 5
      |8, 13, 0, 14, 7, 5, 15, 9, 11, 10, 4, 9, 17, 11
      |6, 1, 14, 0, 11, 9, 10, 5, 6, 5, 10, 13, 5, 6
      |5, 10, 7, 11, 0, 2, 12, 6, 8, 7, 3, 2, 14, 8
      |3, 8, 5, 9, 2, 0, 10, 4, 6, 5, 1, 4, 12, 6
      |7, 9, 15, 10, 12, 10, 0, 6, 6, 5, 11, 14, 13, 4
      |1, 4, 9, 5, 6, 4, 6, 0, 2, 1, 5, 8, 8, 2
      |3, 5, 11, 6, 8, 6, 6, 2, 0, 1, 7, 10, 9, 2
      |2, 4, 10, 5, 7, 5, 5, 1, 1, 0, 6, 9, 8, 1
      |4, 9, 4, 10, 3, 1, 11, 5, 7, 6, 0, 5, 13, 7
      |7, 12, 9, 13, 2, 4, 14, 8, 10, 9, 5, 0, 16, 10
      |9, 4, 17, 5, 14, 12, 13, 8, 9, 8, 13, 16, 0, 9
      |3, 5, 11, 6, 8, 6, 4, 2, 2, 1, 7, 10, 9, 0
      |];

% Initial object distribution
S_init = [0, 1, 0, 0, 1, 0, 0, 0, 1, 0, 0, 0, 0, 0];

% Target nodes (1 if target, 0 otherwise)
T = [0, 0, 1, 0, 0, 0, 1, 1, 0, 0, 0, 0, 0, 0];

% Initial truck position (1-based indexing)
u = 7;

% --- DEBUG TRACE ---
% --- GENERATION TRACE (Backwards from Target) ---
% Initial distribution (all on targets): [0, 0, 1, 0, 0, 0, 1, 1, 0, 0, 0, 0, 0, 0]
% Step 1: Selected target node 3 (has 1 objects)
% Step 1: Moved object 3 -> 11
% Step 1: Distribution: [0, 0, 0, 0, 0, 0, 1, 1, 0, 0, 1, 0, 0, 0]
% Step 2: Selected target node 8 (has 1 objects)
% Step 2: Moved object 8 -> 2
% Step 2: Distribution: [0, 1, 0, 0, 0, 0, 1, 0, 0, 0, 1, 0, 0, 0]
% Step 3: Selected target node 7 (has 1 objects)
% Step 3: Moved object 7 -> 10
% Step 3: Distribution: [0, 1, 0, 0, 0, 0, 0, 0, 0, 1, 1, 0, 0, 0]
% Step 4: Selected non-target node 10 (has 1 objects)
% Step 4: Avoiding backtrack to node 7
% Step 4: Moved object 10 -> 2
% Step 4: Distribution: [0, 2, 0, 0, 0, 0, 0, 0, 0, 0, 1, 0, 0, 0]
% Step 5: Selected non-target node 2 (has 2 objects)
% Step 5: Avoiding backtrack to node 10
% Step 5: Moved object 2 -> 13
% Step 5: Distribution: [0, 1, 0, 0, 0, 0, 0, 0, 0, 0, 1, 0, 1, 0]
% Step 6: Selected non-target node 13 (has 1 objects)
% Step 6: Moved object 13 -> 2
% Step 6: Distribution: [0, 2, 0, 0, 0, 0, 0, 0, 0, 0, 1, 0, 0, 0]
% Step 7: Selected non-target node 2 (has 2 objects)
% Step 7: Avoiding backtrack to node 13
% Step 7: Moved object 2 -> 4
% Step 7: Distribution: [0, 1, 0, 1, 0, 0, 0, 0, 0, 0, 1, 0, 0, 0]
% Step 8: Selected non-target node 2 (has 1 objects)
% Step 8: Avoiding backtrack to node 13
% Step 8: Moved object 2 -> 10
% Step 8: Distribution: [0, 0, 0, 1, 0, 0, 0, 0, 0, 1, 1, 0, 0, 0]
% Step 9: Selected non-target node 4 (has 1 objects)
% Step 9: Moved object 4 -> 2
% Step 9: Distribution: [0, 1, 0, 0, 0, 0, 0, 0, 0, 1, 1, 0, 0, 0]
% Step 10: Selected non-target node 11 (has 1 objects)
% Step 10: Avoiding backtrack to node 3
% Step 10: Moved object 11 -> 6
% Step 10: Distribution: [0, 1, 0, 0, 0, 1, 0, 0, 0, 1, 0, 0, 0, 0]
% Step 11: Selected non-target node 6 (has 1 objects)
% Step 11: Avoiding backtrack to node 11
% Step 11: Moved object 6 -> 12
% Step 11: Distribution: [0, 1, 0, 0, 0, 0, 0, 0, 0, 1, 0, 1, 0, 0]
% Step 12: Selected non-target node 10 (has 1 objects)
% Step 12: Avoiding backtrack to node 2
% Step 12: Moved object 10 -> 14
% Step 12: Distribution: [0, 1, 0, 0, 0, 0, 0, 0, 0, 0, 0, 1, 0, 1]
% Step 13: Selected non-target node 12 (has 1 objects)
% Step 13: Avoiding backtrack to node 6
% Step 13: Moved object 12 -> 5
% Step 13: Distribution: [0, 1, 0, 0, 1, 0, 0, 0, 0, 0, 0, 0, 0, 1]
% Step 14: Selected non-target node 2 (has 1 objects)
% Step 14: Avoiding backtrack to node 4
% Step 14: Moved object 2 -> 13
% Step 14: Distribution: [0, 0, 0, 0, 1, 0, 0, 0, 0, 0, 0, 0, 1, 1]
% Step 15: Selected non-target node 14 (has 1 objects)
% Step 15: Moved object 14 -> 10
% Step 15: Distribution: [0, 0, 0, 0, 1, 0, 0, 0, 0, 1, 0, 0, 1, 0]
% Step 16: Selected non-target node 10 (has 1 objects)
% Step 16: Avoiding backtrack to node 14
% Step 16: Moved object 10 -> 9
% Step 16: Distribution: [0, 0, 0, 0, 1, 0, 0, 0, 1, 0, 0, 0, 1, 0]
% Step 17: Selected non-target node 13 (has 1 objects)
% Step 17: Moved object 13 -> 2
% Step 17: Distribution: [0, 1, 0, 0, 1, 0, 0, 0, 1, 0, 0, 0, 0, 0]
% Truck starting position: 7
