% instance_n22_c0_k8_i61.dzn
% Generated instance for the Trucks problem
% N=22, h=5, k=8

% Number of nodes
N = 22;

% Number of objects
h = 5;

% Maximum plan length
%k = 8;

% Adjacency matrix (0-based internal, will be converted to 1-based)
Adj = [|0, 0, 0, 0, 0, 0, 0, 0, 0, 0, 0, 0, 0, 1, 0, 0, 0, 0, 0, 1, 1, 0
      |0, 0, 0, 0, 0, 0, 0, 0, 0, 0, 0, 0, 0, 0, 0, 1, 0, 0, 0, 0, 0, 0
      |0, 0, 0, 0, 0, 0, 0, 0, 1, 0, 0, 0, 0, 1, 0, 1, 1, 0, 0, 1, 0, 0
      |0, 0, 0, 0, 0, 0, 0, 0, 1, 1, 0, 0, 0, 0, 0, 0, 0, 0, 0, 0, 0, 0
      |0, 0, 0, 0, 0, 1, 0, 0, 0, 0, 0, 0, 0, 0, 0, 0, 0, 0, 0, 0, 0, 0
      |0, 0, 0, 0, 1, 0, 0, 1, 0, 1, 0, 0, 0, 0, 0, 0, 0, 0, 0, 0, 1, 0
      |0, 0, 0, 0, 0, 0, 0, 0, 0, 0, 0, 0, 0, 0, 0, 0, 0, 0, 0, 0, 1, 0
      |0, 0, 0, 0, 0, 1, 0, 0, 0, 0, 1, 0, 1, 0, 0, 0, 0, 0, 0, 0, 0, 0
      |0, 0, 1, 1, 0, 0, 0, 0, 0, 0, 0, 0, 0, 0, 0, 0, 0, 0, 1, 0, 0, 0
      |0, 0, 0, 1, 0, 1, 0, 0, 0, 0, 0, 0, 1, 0, 1, 0, 0, 0, 0, 0, 0, 0
      |0, 0, 0, 0, 0, 0, 0, 1, 0, 0, 0, 0, 0, 0, 0, 0, 0, 0, 0, 0, 0, 0
      |0, 0, 0, 0, 0, 0, 0, 0, 0, 0, 0, 0, 0, 0, 1, 0, 0, 0, 0, 1, 0, 0
      |0, 0, 0, 0, 0, 0, 0, 1, 0, 1, 0, 0, 0, 0, 0, 0, 0, 0, 0, 0, 0, 0
      |1, 0, 1, 0, 0, 0, 0, 0, 0, 0, 0, 0, 0, 0, 0, 0, 0, 0, 0, 1, 0, 0
      |0, 0, 0, 0, 0, 0, 0, 0, 0, 1, 0, 1, 0, 0, 0, 0, 1, 1, 0, 0, 0, 0
      |0, 1, 1, 0, 0, 0, 0, 0, 0, 0, 0, 0, 0, 0, 0, 0, 0, 0, 0, 0, 0, 0
      |0, 0, 1, 0, 0, 0, 0, 0, 0, 0, 0, 0, 0, 0, 1, 0, 0, 0, 0, 0, 0, 0
      |0, 0, 0, 0, 0, 0, 0, 0, 0, 0, 0, 0, 0, 0, 1, 0, 0, 0, 0, 1, 0, 0
      |0, 0, 0, 0, 0, 0, 0, 0, 1, 0, 0, 0, 0, 0, 0, 0, 0, 0, 0, 0, 0, 0
      |1, 0, 1, 0, 0, 0, 0, 0, 0, 0, 0, 1, 0, 1, 0, 0, 0, 1, 0, 0, 0, 0
      |1, 0, 0, 0, 0, 1, 1, 0, 0, 0, 0, 0, 0, 0, 0, 0, 0, 0, 0, 0, 0, 1
      |0, 0, 0, 0, 0, 0, 0, 0, 0, 0, 0, 0, 0, 0, 0, 0, 0, 0, 0, 0, 1, 0
      |];

% Weights matrix (edge weights)
% Weights = [|0, 0, 0, 0, 0, 0, 0, 0, 0, 0, 0, 0, 0, 5, 0, 0, 0, 0, 0, 1, 5, 0
%           |0, 0, 0, 0, 0, 0, 0, 0, 0, 0, 0, 0, 0, 0, 0, 5, 0, 0, 0, 0, 0, 0
%           |0, 0, 0, 0, 0, 0, 0, 0, 1, 0, 0, 0, 0, 5, 0, 2, 3, 0, 0, 3, 0, 0
%           |0, 0, 0, 0, 0, 0, 0, 0, 4, 5, 0, 0, 0, 0, 0, 0, 0, 0, 0, 0, 0, 0
%           |0, 0, 0, 0, 0, 4, 0, 0, 0, 0, 0, 0, 0, 0, 0, 0, 0, 0, 0, 0, 0, 0
%           |0, 0, 0, 0, 4, 0, 0, 4, 0, 2, 0, 0, 0, 0, 0, 0, 0, 0, 0, 0, 1, 0
%           |0, 0, 0, 0, 0, 0, 0, 0, 0, 0, 0, 0, 0, 0, 0, 0, 0, 0, 0, 0, 2, 0
%           |0, 0, 0, 0, 0, 4, 0, 0, 0, 0, 3, 0, 2, 0, 0, 0, 0, 0, 0, 0, 0, 0
%           |0, 0, 1, 4, 0, 0, 0, 0, 0, 0, 0, 0, 0, 0, 0, 0, 0, 0, 5, 0, 0, 0
%           |0, 0, 0, 5, 0, 2, 0, 0, 0, 0, 0, 0, 4, 0, 5, 0, 0, 0, 0, 0, 0, 0
%           |0, 0, 0, 0, 0, 0, 0, 3, 0, 0, 0, 0, 0, 0, 0, 0, 0, 0, 0, 0, 0, 0
%           |0, 0, 0, 0, 0, 0, 0, 0, 0, 0, 0, 0, 0, 0, 4, 0, 0, 0, 0, 1, 0, 0
%           |0, 0, 0, 0, 0, 0, 0, 2, 0, 4, 0, 0, 0, 0, 0, 0, 0, 0, 0, 0, 0, 0
%           |5, 0, 5, 0, 0, 0, 0, 0, 0, 0, 0, 0, 0, 0, 0, 0, 0, 0, 0, 5, 0, 0
%           |0, 0, 0, 0, 0, 0, 0, 0, 0, 5, 0, 4, 0, 0, 0, 0, 4, 2, 0, 0, 0, 0
%           |0, 5, 2, 0, 0, 0, 0, 0, 0, 0, 0, 0, 0, 0, 0, 0, 0, 0, 0, 0, 0, 0
%           |0, 0, 3, 0, 0, 0, 0, 0, 0, 0, 0, 0, 0, 0, 4, 0, 0, 0, 0, 0, 0, 0
%           |0, 0, 0, 0, 0, 0, 0, 0, 0, 0, 0, 0, 0, 0, 2, 0, 0, 0, 0, 4, 0, 0
%           |0, 0, 0, 0, 0, 0, 0, 0, 5, 0, 0, 0, 0, 0, 0, 0, 0, 0, 0, 0, 0, 0
%           |1, 0, 3, 0, 0, 0, 0, 0, 0, 0, 0, 1, 0, 5, 0, 0, 0, 4, 0, 0, 0, 0
%           |5, 0, 0, 0, 0, 1, 2, 0, 0, 0, 0, 0, 0, 0, 0, 0, 0, 0, 0, 0, 0, 2
%           |0, 0, 0, 0, 0, 0, 0, 0, 0, 0, 0, 0, 0, 0, 0, 0, 0, 0, 0, 0, 2, 0
%           |];

% Distance matrix
Dist = [|0, 11, 4, 9, 10, 6, 7, 10, 5, 8, 13, 2, 12, 5, 6, 6, 7, 5, 10, 1, 5, 7
      |11, 0, 7, 12, 21, 17, 18, 21, 8, 17, 24, 11, 21, 12, 14, 5, 10, 14, 13, 10, 16, 18
      |4, 7, 0, 5, 14, 10, 11, 14, 1, 10, 17, 4, 14, 5, 7, 2, 3, 7, 6, 3, 9, 11
      |9, 12, 5, 0, 11, 7, 10, 11, 4, 5, 14, 9, 9, 10, 10, 7, 8, 12, 9, 8, 8, 10
      |10, 21, 14, 11, 0, 4, 7, 8, 15, 6, 11, 12, 10, 15, 11, 16, 15, 13, 20, 11, 5, 7
      |6, 17, 10, 7, 4, 0, 3, 4, 11, 2, 7, 8, 6, 11, 7, 12, 11, 9, 16, 7, 1, 3
      |7, 18, 11, 10, 7, 3, 0, 7, 12, 5, 10, 9, 9, 12, 10, 13, 14, 12, 17, 8, 2, 4
      |10, 21, 14, 11, 8, 4, 7, 0, 15, 6, 3, 12, 2, 15, 11, 16, 15, 13, 20, 11, 5, 7
      |5, 8, 1, 4, 15, 11, 12, 15, 0, 9, 18, 5, 13, 6, 8, 3, 4, 8, 5, 4, 10, 12
      |8, 17, 10, 5, 6, 2, 5, 6, 9, 0, 9, 9, 4, 13, 5, 12, 9, 7, 14, 9, 3, 5
      |13, 24, 17, 14, 11, 7, 10, 3, 18, 9, 0, 15, 5, 18, 14, 19, 18, 16, 23, 14, 8, 10
      |2, 11, 4, 9, 12, 8, 9, 12, 5, 9, 15, 0, 13, 6, 4, 6, 7, 5, 10, 1, 7, 9
      |12, 21, 14, 9, 10, 6, 9, 2, 13, 4, 5, 13, 0, 17, 9, 16, 13, 11, 18, 13, 7, 9
      |5, 12, 5, 10, 15, 11, 12, 15, 6, 13, 18, 6, 17, 0, 10, 7, 8, 9, 11, 5, 10, 12
      |6, 14, 7, 10, 11, 7, 10, 11, 8, 5, 14, 4, 9, 10, 0, 9, 4, 2, 13, 5, 8, 10
      |6, 5, 2, 7, 16, 12, 13, 16, 3, 12, 19, 6, 16, 7, 9, 0, 5, 9, 8, 5, 11, 13
      |7, 10, 3, 8, 15, 11, 14, 15, 4, 9, 18, 7, 13, 8, 4, 5, 0, 6, 9, 6, 12, 14
      |5, 14, 7, 12, 13, 9, 12, 13, 8, 7, 16, 5, 11, 9, 2, 9, 6, 0, 13, 4, 10, 12
      |10, 13, 6, 9, 20, 16, 17, 20, 5, 14, 23, 10, 18, 11, 13, 8, 9, 13, 0, 9, 15, 17
      |1, 10, 3, 8, 11, 7, 8, 11, 4, 9, 14, 1, 13, 5, 5, 5, 6, 4, 9, 0, 6, 8
      |5, 16, 9, 8, 5, 1, 2, 5, 10, 3, 8, 7, 7, 10, 8, 11, 12, 10, 15, 6, 0, 2
      |7, 18, 11, 10, 7, 3, 4, 7, 12, 5, 10, 9, 9, 12, 10, 13, 14, 12, 17, 8, 2, 0
      |];

% Initial object distribution
S_init = [0, 0, 2, 0, 0, 1, 0, 1, 0, 0, 0, 0, 0, 1, 0, 0, 0, 0, 0, 0, 0, 0];

% Target nodes (1 if target, 0 otherwise)
T = [0, 1, 0, 0, 1, 0, 0, 0, 0, 1, 0, 0, 0, 0, 0, 0, 1, 1, 0, 0, 0, 0];

% Initial truck position (1-based indexing)
u = 5;

% --- DEBUG TRACE ---
% --- GENERATION TRACE (Backwards from Target) ---
% Initial distribution (all on targets): [0, 1, 0, 0, 1, 0, 0, 0, 0, 1, 0, 0, 0, 0, 0, 0, 1, 1, 0, 0, 0, 0]
% Step 1: Selected target node 10 (has 1 objects)
% Step 1: Moved object 10 -> 13
% Step 1: Distribution: [0, 1, 0, 0, 1, 0, 0, 0, 0, 0, 0, 0, 1, 0, 0, 0, 1, 1, 0, 0, 0, 0]
% Step 2: Selected target node 17 (has 1 objects)
% Step 2: Moved object 17 -> 3
% Step 2: Distribution: [0, 1, 1, 0, 1, 0, 0, 0, 0, 0, 0, 0, 1, 0, 0, 0, 0, 1, 0, 0, 0, 0]
% Step 3: Selected target node 5 (has 1 objects)
% Step 3: Moved object 5 -> 6
% Step 3: Distribution: [0, 1, 1, 0, 0, 1, 0, 0, 0, 0, 0, 0, 1, 0, 0, 0, 0, 1, 0, 0, 0, 0]
% Step 4: Selected target node 2 (has 1 objects)
% Step 4: Moved object 2 -> 16
% Step 4: Distribution: [0, 0, 1, 0, 0, 1, 0, 0, 0, 0, 0, 0, 1, 0, 0, 1, 0, 1, 0, 0, 0, 0]
% Step 5: Selected target node 18 (has 1 objects)
% Step 5: Moved object 18 -> 20
% Step 5: Distribution: [0, 0, 1, 0, 0, 1, 0, 0, 0, 0, 0, 0, 1, 0, 0, 1, 0, 0, 0, 1, 0, 0]
% Step 6: Selected non-target node 16 (has 1 objects)
% Step 6: Avoiding backtrack to node 2
% Step 6: Moved object 16 -> 3
% Step 6: Distribution: [0, 0, 2, 0, 0, 1, 0, 0, 0, 0, 0, 0, 1, 0, 0, 0, 0, 0, 0, 1, 0, 0]
% Step 7: Selected non-target node 13 (has 1 objects)
% Step 7: Avoiding backtrack to node 10
% Step 7: Moved object 13 -> 8
% Step 7: Distribution: [0, 0, 2, 0, 0, 1, 0, 1, 0, 0, 0, 0, 0, 0, 0, 0, 0, 0, 0, 1, 0, 0]
% Step 8: Selected non-target node 20 (has 1 objects)
% Step 8: Avoiding backtrack to node 18
% Step 8: Moved object 20 -> 14
% Step 8: Distribution: [0, 0, 2, 0, 0, 1, 0, 1, 0, 0, 0, 0, 0, 1, 0, 0, 0, 0, 0, 0, 0, 0]
% Truck starting position: 5
