% instance_n18_c2_k5_i50.dzn
% Generated instance for the Trucks problem
% N=18, h=4, k=5

% Number of nodes
N = 18;

% Number of objects
h = 4;

% Maximum plan length
%k = 5;

% Adjacency matrix (0-based internal, will be converted to 1-based)
Adj = [|0, 1, 0, 0, 1, 1, 1, 0, 1, 1, 1, 0, 0, 0, 0, 1, 0, 0
      |1, 0, 1, 0, 0, 0, 0, 0, 0, 0, 0, 1, 0, 0, 0, 0, 0, 0
      |0, 1, 0, 0, 0, 1, 0, 0, 0, 1, 1, 1, 0, 0, 0, 0, 0, 1
      |0, 0, 0, 0, 0, 0, 0, 0, 0, 0, 1, 0, 0, 0, 0, 0, 0, 0
      |1, 0, 0, 0, 0, 0, 0, 1, 0, 0, 0, 0, 1, 0, 0, 1, 0, 0
      |1, 0, 1, 0, 0, 0, 0, 0, 0, 0, 0, 1, 0, 0, 1, 0, 0, 0
      |1, 0, 0, 0, 0, 0, 0, 0, 0, 0, 0, 0, 0, 0, 0, 0, 0, 1
      |0, 0, 0, 0, 1, 0, 0, 0, 0, 0, 0, 0, 0, 0, 0, 0, 1, 0
      |1, 0, 0, 0, 0, 0, 0, 0, 0, 0, 0, 0, 0, 1, 0, 0, 0, 0
      |1, 0, 1, 0, 0, 0, 0, 0, 0, 0, 0, 0, 0, 0, 0, 0, 0, 0
      |1, 0, 1, 1, 0, 0, 0, 0, 0, 0, 0, 0, 0, 0, 0, 0, 0, 0
      |0, 1, 1, 0, 0, 1, 0, 0, 0, 0, 0, 0, 0, 0, 0, 0, 0, 0
      |0, 0, 0, 0, 1, 0, 0, 0, 0, 0, 0, 0, 0, 0, 0, 0, 0, 0
      |0, 0, 0, 0, 0, 0, 0, 0, 1, 0, 0, 0, 0, 0, 0, 0, 0, 0
      |0, 0, 0, 0, 0, 1, 0, 0, 0, 0, 0, 0, 0, 0, 0, 0, 0, 0
      |1, 0, 0, 0, 1, 0, 0, 0, 0, 0, 0, 0, 0, 0, 0, 0, 0, 0
      |0, 0, 0, 0, 0, 0, 0, 1, 0, 0, 0, 0, 0, 0, 0, 0, 0, 0
      |0, 0, 1, 0, 0, 0, 1, 0, 0, 0, 0, 0, 0, 0, 0, 0, 0, 0
      |];

% Weights matrix (edge weights)
% Weights = [|0, 5, 0, 0, 4, 3, 2, 0, 2, 2, 2, 0, 0, 0, 0, 5, 0, 0
%           |5, 0, 2, 0, 0, 0, 0, 0, 0, 0, 0, 3, 0, 0, 0, 0, 0, 0
%           |0, 2, 0, 0, 0, 1, 0, 0, 0, 4, 1, 2, 0, 0, 0, 0, 0, 2
%           |0, 0, 0, 0, 0, 0, 0, 0, 0, 0, 1, 0, 0, 0, 0, 0, 0, 0
%           |4, 0, 0, 0, 0, 0, 0, 1, 0, 0, 0, 0, 5, 0, 0, 1, 0, 0
%           |3, 0, 1, 0, 0, 0, 0, 0, 0, 0, 0, 1, 0, 0, 3, 0, 0, 0
%           |2, 0, 0, 0, 0, 0, 0, 0, 0, 0, 0, 0, 0, 0, 0, 0, 0, 5
%           |0, 0, 0, 0, 1, 0, 0, 0, 0, 0, 0, 0, 0, 0, 0, 0, 1, 0
%           |2, 0, 0, 0, 0, 0, 0, 0, 0, 0, 0, 0, 0, 5, 0, 0, 0, 0
%           |2, 0, 4, 0, 0, 0, 0, 0, 0, 0, 0, 0, 0, 0, 0, 0, 0, 0
%           |2, 0, 1, 1, 0, 0, 0, 0, 0, 0, 0, 0, 0, 0, 0, 0, 0, 0
%           |0, 3, 2, 0, 0, 1, 0, 0, 0, 0, 0, 0, 0, 0, 0, 0, 0, 0
%           |0, 0, 0, 0, 5, 0, 0, 0, 0, 0, 0, 0, 0, 0, 0, 0, 0, 0
%           |0, 0, 0, 0, 0, 0, 0, 0, 5, 0, 0, 0, 0, 0, 0, 0, 0, 0
%           |0, 0, 0, 0, 0, 3, 0, 0, 0, 0, 0, 0, 0, 0, 0, 0, 0, 0
%           |5, 0, 0, 0, 1, 0, 0, 0, 0, 0, 0, 0, 0, 0, 0, 0, 0, 0
%           |0, 0, 0, 0, 0, 0, 0, 1, 0, 0, 0, 0, 0, 0, 0, 0, 0, 0
%           |0, 0, 2, 0, 0, 0, 5, 0, 0, 0, 0, 0, 0, 0, 0, 0, 0, 0
%           |];

% Distance matrix
Dist = [|0, 5, 3, 3, 4, 3, 2, 5, 2, 2, 2, 4, 9, 7, 6, 5, 6, 5
      |5, 0, 2, 4, 9, 3, 7, 10, 7, 6, 3, 3, 14, 12, 6, 10, 11, 4
      |3, 2, 0, 2, 7, 1, 5, 8, 5, 4, 1, 2, 12, 10, 4, 8, 9, 2
      |3, 4, 2, 0, 7, 3, 5, 8, 5, 5, 1, 4, 12, 10, 6, 8, 9, 4
      |4, 9, 7, 7, 0, 7, 6, 1, 6, 6, 6, 8, 5, 11, 10, 1, 2, 9
      |3, 3, 1, 3, 7, 0, 5, 8, 5, 5, 2, 1, 12, 10, 3, 8, 9, 3
      |2, 7, 5, 5, 6, 5, 0, 7, 4, 4, 4, 6, 11, 9, 8, 7, 8, 5
      |5, 10, 8, 8, 1, 8, 7, 0, 7, 7, 7, 9, 6, 12, 11, 2, 1, 10
      |2, 7, 5, 5, 6, 5, 4, 7, 0, 4, 4, 6, 11, 5, 8, 7, 8, 7
      |2, 6, 4, 5, 6, 5, 4, 7, 4, 0, 4, 6, 11, 9, 8, 7, 8, 6
      |2, 3, 1, 1, 6, 2, 4, 7, 4, 4, 0, 3, 11, 9, 5, 7, 8, 3
      |4, 3, 2, 4, 8, 1, 6, 9, 6, 6, 3, 0, 13, 11, 4, 9, 10, 4
      |9, 14, 12, 12, 5, 12, 11, 6, 11, 11, 11, 13, 0, 16, 15, 6, 7, 14
      |7, 12, 10, 10, 11, 10, 9, 12, 5, 9, 9, 11, 16, 0, 13, 12, 13, 12
      |6, 6, 4, 6, 10, 3, 8, 11, 8, 8, 5, 4, 15, 13, 0, 11, 12, 6
      |5, 10, 8, 8, 1, 8, 7, 2, 7, 7, 7, 9, 6, 12, 11, 0, 3, 10
      |6, 11, 9, 9, 2, 9, 8, 1, 8, 8, 8, 10, 7, 13, 12, 3, 0, 11
      |5, 4, 2, 4, 9, 3, 5, 10, 7, 6, 3, 4, 14, 12, 6, 10, 11, 0
      |];

% Initial object distribution
S_init = [0, 0, 1, 0, 1, 0, 1, 0, 0, 0, 0, 0, 0, 0, 1, 0, 0, 0];

% Target nodes (1 if target, 0 otherwise)
T = [1, 0, 0, 0, 0, 1, 0, 0, 0, 0, 0, 0, 1, 0, 0, 0, 0, 0];

% Initial truck position (1-based indexing)
u = 15;

% --- DEBUG TRACE ---
% --- GENERATION TRACE (Backwards from Target) ---
% Initial distribution (all on targets): [1, 0, 0, 0, 0, 2, 0, 0, 0, 0, 0, 0, 1, 0, 0, 0, 0, 0]
% Step 1: Selected target node 1 (has 1 objects)
% Step 1: Moved object 1 -> 7
% Step 1: Distribution: [0, 0, 0, 0, 0, 2, 1, 0, 0, 0, 0, 0, 1, 0, 0, 0, 0, 0]
% Step 2: Selected target node 6 (has 2 objects)
% Step 2: Moved object 6 -> 15
% Step 2: Distribution: [0, 0, 0, 0, 0, 1, 1, 0, 0, 0, 0, 0, 1, 0, 1, 0, 0, 0]
% Step 3: Selected target node 6 (has 1 objects)
% Step 3: Moved object 6 -> 12
% Step 3: Distribution: [0, 0, 0, 0, 0, 0, 1, 0, 0, 0, 0, 1, 1, 0, 1, 0, 0, 0]
% Step 4: Selected target node 13 (has 1 objects)
% Step 4: Moved object 13 -> 5
% Step 4: Distribution: [0, 0, 0, 0, 1, 0, 1, 0, 0, 0, 0, 1, 0, 0, 1, 0, 0, 0]
% Step 5: Selected non-target node 12 (has 1 objects)
% Step 5: Avoiding backtrack to node 6
% Step 5: Moved object 12 -> 3
% Step 5: Distribution: [0, 0, 1, 0, 1, 0, 1, 0, 0, 0, 0, 0, 0, 0, 1, 0, 0, 0]
% Truck starting position: 15
