% instance_n10_c3_k14_i18.dzn
% Generated instance for the Trucks problem
% N=10, h=3, k=14

% Number of nodes
N = 10;

% Number of objects
h = 3;

% Maximum plan length
%k = 14;

% Adjacency matrix (0-based internal, will be converted to 1-based)
Adj = [|0, 0, 1, 0, 1, 1, 0, 1, 0, 0
      |0, 0, 0, 0, 0, 0, 0, 1, 1, 0
      |1, 0, 0, 0, 0, 0, 0, 0, 0, 0
      |0, 0, 0, 0, 0, 1, 0, 0, 0, 1
      |1, 0, 0, 0, 0, 0, 0, 1, 0, 1
      |1, 0, 0, 1, 0, 0, 0, 1, 1, 0
      |0, 0, 0, 0, 0, 0, 0, 1, 0, 0
      |1, 1, 0, 0, 1, 1, 1, 0, 0, 0
      |0, 1, 0, 0, 0, 1, 0, 0, 0, 0
      |0, 0, 0, 1, 1, 0, 0, 0, 0, 0
      |];

% Weights matrix (edge weights)
% Weights = [|0, 0, 3, 0, 2, 4, 0, 1, 0, 0
%           |0, 0, 0, 0, 0, 0, 0, 3, 2, 0
%           |3, 0, 0, 0, 0, 0, 0, 0, 0, 0
%           |0, 0, 0, 0, 0, 2, 0, 0, 0, 4
%           |2, 0, 0, 0, 0, 0, 0, 4, 0, 1
%           |4, 0, 0, 2, 0, 0, 0, 4, 5, 0
%           |0, 0, 0, 0, 0, 0, 0, 4, 0, 0
%           |1, 3, 0, 0, 4, 4, 4, 0, 0, 0
%           |0, 2, 0, 0, 0, 5, 0, 0, 0, 0
%           |0, 0, 0, 4, 1, 0, 0, 0, 0, 0
%           |];

% Distance matrix
Dist = [|0, 4, 3, 6, 2, 4, 5, 1, 6, 3
      |4, 0, 7, 9, 6, 7, 7, 3, 2, 7
      |3, 7, 0, 9, 5, 7, 8, 4, 9, 6
      |6, 9, 9, 0, 5, 2, 10, 6, 7, 4
      |2, 6, 5, 5, 0, 6, 7, 3, 8, 1
      |4, 7, 7, 2, 6, 0, 8, 4, 5, 6
      |5, 7, 8, 10, 7, 8, 0, 4, 9, 8
      |1, 3, 4, 6, 3, 4, 4, 0, 5, 4
      |6, 2, 9, 7, 8, 5, 9, 5, 0, 9
      |3, 7, 6, 4, 1, 6, 8, 4, 9, 0
      |];

% Initial object distribution
S_init = [0, 0, 0, 2, 0, 0, 0, 0, 1, 0];

% Target nodes (1 if target, 0 otherwise)
T = [0, 0, 1, 0, 0, 1, 0, 1, 0, 0];

% Initial truck position (1-based indexing)
u = 4;

% --- DEBUG TRACE ---
% --- GENERATION TRACE (Backwards from Target) ---
% Initial distribution (all on targets): [0, 0, 1, 0, 0, 1, 0, 1, 0, 0]
% Step 1: Selected target node 3 (has 1 objects)
% Step 1: Moved object 3 -> 1
% Step 1: Distribution: [1, 0, 0, 0, 0, 1, 0, 1, 0, 0]
% Step 2: Selected target node 8 (has 1 objects)
% Step 2: Moved object 8 -> 2
% Step 2: Distribution: [1, 1, 0, 0, 0, 1, 0, 0, 0, 0]
% Step 3: Selected target node 6 (has 1 objects)
% Step 3: Moved object 6 -> 1
% Step 3: Distribution: [2, 1, 0, 0, 0, 0, 0, 0, 0, 0]
% Step 4: Selected non-target node 2 (has 1 objects)
% Step 4: Avoiding backtrack to node 8
% Step 4: Moved object 2 -> 9
% Step 4: Distribution: [2, 0, 0, 0, 0, 0, 0, 0, 1, 0]
% Step 5: Selected non-target node 1 (has 2 objects)
% Step 5: Avoiding backtrack to node 6
% Step 5: Moved object 1 -> 5
% Step 5: Distribution: [1, 0, 0, 0, 1, 0, 0, 0, 1, 0]
% Step 6: Selected non-target node 5 (has 1 objects)
% Step 6: Avoiding backtrack to node 1
% Step 6: Moved object 5 -> 10
% Step 6: Distribution: [1, 0, 0, 0, 0, 0, 0, 0, 1, 1]
% Step 7: Selected non-target node 10 (has 1 objects)
% Step 7: Avoiding backtrack to node 5
% Step 7: Moved object 10 -> 4
% Step 7: Distribution: [1, 0, 0, 1, 0, 0, 0, 0, 1, 0]
% Step 8: Selected non-target node 1 (has 1 objects)
% Step 8: Avoiding backtrack to node 6
% Step 8: Moved object 1 -> 5
% Step 8: Distribution: [0, 0, 0, 1, 1, 0, 0, 0, 1, 0]
% Step 9: Selected non-target node 9 (has 1 objects)
% Step 9: Moved object 9 -> 2
% Step 9: Distribution: [0, 1, 0, 1, 1, 0, 0, 0, 0, 0]
% Step 10: Selected non-target node 2 (has 1 objects)
% Step 10: Moved object 2 -> 9
% Step 10: Distribution: [0, 0, 0, 1, 1, 0, 0, 0, 1, 0]
% Step 11: Selected non-target node 9 (has 1 objects)
% Step 11: Moved object 9 -> 2
% Step 11: Distribution: [0, 1, 0, 1, 1, 0, 0, 0, 0, 0]
% Step 12: Selected non-target node 5 (has 1 objects)
% Step 12: Avoiding backtrack to node 1
% Step 12: Moved object 5 -> 10
% Step 12: Distribution: [0, 1, 0, 1, 0, 0, 0, 0, 0, 1]
% Step 13: Selected non-target node 10 (has 1 objects)
% Step 13: Avoiding backtrack to node 5
% Step 13: Moved object 10 -> 4
% Step 13: Distribution: [0, 1, 0, 2, 0, 0, 0, 0, 0, 0]
% Step 14: Selected non-target node 2 (has 1 objects)
% Step 14: Moved object 2 -> 9
% Step 14: Distribution: [0, 0, 0, 2, 0, 0, 0, 0, 1, 0]
% Truck starting position: 4
