% instance_n14_c1_k8_i26.dzn
% Generated instance for the Trucks problem
% N=14, h=3, k=8

% Number of nodes
N = 14;

% Number of objects
h = 3;

% Maximum plan length
%k = 8;

% Adjacency matrix (0-based internal, will be converted to 1-based)
Adj = [|0, 0, 0, 1, 1, 0, 0, 0, 0, 0, 1, 1, 0, 0
      |0, 0, 0, 0, 0, 0, 1, 0, 0, 1, 1, 0, 0, 0
      |0, 0, 0, 0, 0, 0, 0, 0, 0, 0, 1, 0, 0, 0
      |1, 0, 0, 0, 0, 0, 1, 0, 0, 1, 0, 0, 0, 0
      |1, 0, 0, 0, 0, 0, 0, 0, 0, 0, 0, 0, 0, 0
      |0, 0, 0, 0, 0, 0, 0, 1, 0, 1, 0, 0, 0, 0
      |0, 1, 0, 1, 0, 0, 0, 0, 0, 0, 0, 0, 1, 1
      |0, 0, 0, 0, 0, 1, 0, 0, 0, 0, 0, 1, 0, 0
      |0, 0, 0, 0, 0, 0, 0, 0, 0, 0, 1, 0, 0, 0
      |0, 1, 0, 1, 0, 1, 0, 0, 0, 0, 1, 0, 0, 0
      |1, 1, 1, 0, 0, 0, 0, 0, 1, 1, 0, 0, 0, 1
      |1, 0, 0, 0, 0, 0, 0, 1, 0, 0, 0, 0, 0, 0
      |0, 0, 0, 0, 0, 0, 1, 0, 0, 0, 0, 0, 0, 0
      |0, 0, 0, 0, 0, 0, 1, 0, 0, 0, 1, 0, 0, 0
      |];

% Weights matrix (edge weights)
% Weights = [|0, 0, 0, 5, 1, 0, 0, 0, 0, 0, 2, 2, 0, 0
%           |0, 0, 0, 0, 0, 0, 4, 0, 0, 4, 1, 0, 0, 0
%           |0, 0, 0, 0, 0, 0, 0, 0, 0, 0, 3, 0, 0, 0
%           |5, 0, 0, 0, 0, 0, 3, 0, 0, 2, 0, 0, 0, 0
%           |1, 0, 0, 0, 0, 0, 0, 0, 0, 0, 0, 0, 0, 0
%           |0, 0, 0, 0, 0, 0, 0, 3, 0, 5, 0, 0, 0, 0
%           |0, 4, 0, 3, 0, 0, 0, 0, 0, 0, 0, 0, 2, 1
%           |0, 0, 0, 0, 0, 3, 0, 0, 0, 0, 0, 1, 0, 0
%           |0, 0, 0, 0, 0, 0, 0, 0, 0, 0, 5, 0, 0, 0
%           |0, 4, 0, 2, 0, 5, 0, 0, 0, 0, 2, 0, 0, 0
%           |2, 1, 3, 0, 0, 0, 0, 0, 5, 2, 0, 0, 0, 3
%           |2, 0, 0, 0, 0, 0, 0, 1, 0, 0, 0, 0, 0, 0
%           |0, 0, 0, 0, 0, 0, 2, 0, 0, 0, 0, 0, 0, 0
%           |0, 0, 0, 0, 0, 0, 1, 0, 0, 0, 3, 0, 0, 0
%           |];

% Distance matrix
Dist = [|0, 3, 5, 5, 1, 6, 6, 3, 7, 4, 2, 2, 8, 5
      |3, 0, 4, 5, 4, 8, 4, 6, 6, 3, 1, 5, 6, 4
      |5, 4, 0, 7, 6, 10, 7, 8, 8, 5, 3, 7, 9, 6
      |5, 5, 7, 0, 6, 7, 3, 8, 9, 2, 4, 7, 5, 4
      |1, 4, 6, 6, 0, 7, 7, 4, 8, 5, 3, 3, 9, 6
      |6, 8, 10, 7, 7, 0, 10, 3, 12, 5, 7, 4, 12, 10
      |6, 4, 7, 3, 7, 10, 0, 9, 9, 5, 4, 8, 2, 1
      |3, 6, 8, 8, 4, 3, 9, 0, 10, 7, 5, 1, 11, 8
      |7, 6, 8, 9, 8, 12, 9, 10, 0, 7, 5, 9, 11, 8
      |4, 3, 5, 2, 5, 5, 5, 7, 7, 0, 2, 6, 7, 5
      |2, 1, 3, 4, 3, 7, 4, 5, 5, 2, 0, 4, 6, 3
      |2, 5, 7, 7, 3, 4, 8, 1, 9, 6, 4, 0, 10, 7
      |8, 6, 9, 5, 9, 12, 2, 11, 11, 7, 6, 10, 0, 3
      |5, 4, 6, 4, 6, 10, 1, 8, 8, 5, 3, 7, 3, 0
      |];

% Initial object distribution
S_init = [1, 0, 0, 0, 0, 0, 0, 0, 0, 2, 0, 0, 0, 0];

% Target nodes (1 if target, 0 otherwise)
T = [0, 1, 0, 0, 0, 1, 0, 0, 0, 0, 0, 0, 0, 1];

% Initial truck position (1-based indexing)
u = 11;

% --- DEBUG TRACE ---
% --- GENERATION TRACE (Backwards from Target) ---
% Initial distribution (all on targets): [0, 1, 0, 0, 0, 1, 0, 0, 0, 0, 0, 0, 0, 1]
% Step 1: Selected target node 14 (has 1 objects)
% Step 1: Moved object 14 -> 11
% Step 1: Distribution: [0, 1, 0, 0, 0, 1, 0, 0, 0, 0, 1, 0, 0, 0]
% Step 2: Selected target node 6 (has 1 objects)
% Step 2: Moved object 6 -> 8
% Step 2: Distribution: [0, 1, 0, 0, 0, 0, 0, 1, 0, 0, 1, 0, 0, 0]
% Step 3: Selected target node 2 (has 1 objects)
% Step 3: Moved object 2 -> 10
% Step 3: Distribution: [0, 0, 0, 0, 0, 0, 0, 1, 0, 1, 1, 0, 0, 0]
% Step 4: Selected non-target node 11 (has 1 objects)
% Step 4: Avoiding backtrack to node 14
% Step 4: Moved object 11 -> 3
% Step 4: Distribution: [0, 0, 1, 0, 0, 0, 0, 1, 0, 1, 0, 0, 0, 0]
% Step 5: Selected non-target node 3 (has 1 objects)
% Step 5: Moved object 3 -> 11
% Step 5: Distribution: [0, 0, 0, 0, 0, 0, 0, 1, 0, 1, 1, 0, 0, 0]
% Step 6: Selected non-target node 11 (has 1 objects)
% Step 6: Avoiding backtrack to node 3
% Step 6: Moved object 11 -> 10
% Step 6: Distribution: [0, 0, 0, 0, 0, 0, 0, 1, 0, 2, 0, 0, 0, 0]
% Step 7: Selected non-target node 8 (has 1 objects)
% Step 7: Avoiding backtrack to node 6
% Step 7: Moved object 8 -> 12
% Step 7: Distribution: [0, 0, 0, 0, 0, 0, 0, 0, 0, 2, 0, 1, 0, 0]
% Step 8: Selected non-target node 12 (has 1 objects)
% Step 8: Avoiding backtrack to node 8
% Step 8: Moved object 12 -> 1
% Step 8: Distribution: [1, 0, 0, 0, 0, 0, 0, 0, 0, 2, 0, 0, 0, 0]
% Truck starting position: 11
