% instance_n14_c1_k14_i28.dzn
% Generated instance for the Trucks problem
% N=14, h=3, k=14

% Number of nodes
N = 14;

% Number of objects
h = 3;

% Maximum plan length
%k = 14;

% Adjacency matrix (0-based internal, will be converted to 1-based)
Adj = [|0, 0, 0, 1, 0, 0, 1, 0, 0, 0, 1, 0, 0, 0
      |0, 0, 0, 0, 0, 0, 0, 0, 0, 0, 1, 0, 0, 0
      |0, 0, 0, 0, 0, 0, 1, 0, 0, 0, 0, 0, 0, 0
      |1, 0, 0, 0, 0, 0, 0, 0, 0, 1, 0, 0, 1, 0
      |0, 0, 0, 0, 0, 1, 0, 0, 0, 0, 1, 0, 0, 0
      |0, 0, 0, 0, 1, 0, 0, 0, 0, 0, 0, 0, 0, 0
      |1, 0, 1, 0, 0, 0, 0, 0, 0, 0, 0, 1, 1, 0
      |0, 0, 0, 0, 0, 0, 0, 0, 0, 1, 1, 0, 0, 0
      |0, 0, 0, 0, 0, 0, 0, 0, 0, 0, 0, 0, 1, 1
      |0, 0, 0, 1, 0, 0, 0, 1, 0, 0, 0, 0, 0, 0
      |1, 1, 0, 0, 1, 0, 0, 1, 0, 0, 0, 0, 1, 1
      |0, 0, 0, 0, 0, 0, 1, 0, 0, 0, 0, 0, 0, 1
      |0, 0, 0, 1, 0, 0, 1, 0, 1, 0, 1, 0, 0, 0
      |0, 0, 0, 0, 0, 0, 0, 0, 1, 0, 1, 1, 0, 0
      |];

% Weights matrix (edge weights)
% Weights = [|0, 0, 0, 2, 0, 0, 4, 0, 0, 0, 4, 0, 0, 0
%           |0, 0, 0, 0, 0, 0, 0, 0, 0, 0, 4, 0, 0, 0
%           |0, 0, 0, 0, 0, 0, 4, 0, 0, 0, 0, 0, 0, 0
%           |2, 0, 0, 0, 0, 0, 0, 0, 0, 3, 0, 0, 4, 0
%           |0, 0, 0, 0, 0, 5, 0, 0, 0, 0, 3, 0, 0, 0
%           |0, 0, 0, 0, 5, 0, 0, 0, 0, 0, 0, 0, 0, 0
%           |4, 0, 4, 0, 0, 0, 0, 0, 0, 0, 0, 5, 3, 0
%           |0, 0, 0, 0, 0, 0, 0, 0, 0, 4, 2, 0, 0, 0
%           |0, 0, 0, 0, 0, 0, 0, 0, 0, 0, 0, 0, 1, 1
%           |0, 0, 0, 3, 0, 0, 0, 4, 0, 0, 0, 0, 0, 0
%           |4, 4, 0, 0, 3, 0, 0, 2, 0, 0, 0, 0, 2, 1
%           |0, 0, 0, 0, 0, 0, 5, 0, 0, 0, 0, 0, 0, 5
%           |0, 0, 0, 4, 0, 0, 3, 0, 1, 0, 2, 0, 0, 0
%           |0, 0, 0, 0, 0, 0, 0, 0, 1, 0, 1, 5, 0, 0
%           |];

% Distance matrix
Dist = [|0, 8, 8, 2, 7, 12, 4, 6, 6, 5, 4, 9, 6, 5
      |8, 0, 13, 10, 7, 12, 9, 6, 6, 10, 4, 10, 6, 5
      |8, 13, 0, 10, 12, 17, 4, 11, 8, 13, 9, 9, 7, 9
      |2, 10, 10, 0, 9, 14, 6, 7, 5, 3, 6, 11, 4, 6
      |7, 7, 12, 9, 0, 5, 8, 5, 5, 9, 3, 9, 5, 4
      |12, 12, 17, 14, 5, 0, 13, 10, 10, 14, 8, 14, 10, 9
      |4, 9, 4, 6, 8, 13, 0, 7, 4, 9, 5, 5, 3, 5
      |6, 6, 11, 7, 5, 10, 7, 0, 4, 4, 2, 8, 4, 3
      |6, 6, 8, 5, 5, 10, 4, 4, 0, 8, 2, 6, 1, 1
      |5, 10, 13, 3, 9, 14, 9, 4, 8, 0, 6, 12, 7, 7
      |4, 4, 9, 6, 3, 8, 5, 2, 2, 6, 0, 6, 2, 1
      |9, 10, 9, 11, 9, 14, 5, 8, 6, 12, 6, 0, 7, 5
      |6, 6, 7, 4, 5, 10, 3, 4, 1, 7, 2, 7, 0, 2
      |5, 5, 9, 6, 4, 9, 5, 3, 1, 7, 1, 5, 2, 0
      |];

% Initial object distribution
S_init = [1, 0, 1, 0, 0, 0, 0, 0, 0, 0, 0, 1, 0, 0];

% Target nodes (1 if target, 0 otherwise)
T = [0, 1, 0, 0, 0, 0, 0, 0, 1, 1, 0, 0, 0, 0];

% Initial truck position (1-based indexing)
u = 8;

% --- DEBUG TRACE ---
% --- GENERATION TRACE (Backwards from Target) ---
% Initial distribution (all on targets): [0, 1, 0, 0, 0, 0, 0, 0, 1, 1, 0, 0, 0, 0]
% Step 1: Selected target node 2 (has 1 objects)
% Step 1: Moved object 2 -> 11
% Step 1: Distribution: [0, 0, 0, 0, 0, 0, 0, 0, 1, 1, 1, 0, 0, 0]
% Step 2: Selected target node 10 (has 1 objects)
% Step 2: Moved object 10 -> 4
% Step 2: Distribution: [0, 0, 0, 1, 0, 0, 0, 0, 1, 0, 1, 0, 0, 0]
% Step 3: Selected target node 9 (has 1 objects)
% Step 3: Moved object 9 -> 13
% Step 3: Distribution: [0, 0, 0, 1, 0, 0, 0, 0, 0, 0, 1, 0, 1, 0]
% Step 4: Selected non-target node 4 (has 1 objects)
% Step 4: Avoiding backtrack to node 10
% Step 4: Moved object 4 -> 1
% Step 4: Distribution: [1, 0, 0, 0, 0, 0, 0, 0, 0, 0, 1, 0, 1, 0]
% Step 5: Selected non-target node 11 (has 1 objects)
% Step 5: Avoiding backtrack to node 2
% Step 5: Moved object 11 -> 8
% Step 5: Distribution: [1, 0, 0, 0, 0, 0, 0, 1, 0, 0, 0, 0, 1, 0]
% Step 6: Selected non-target node 8 (has 1 objects)
% Step 6: Moved object 8 -> 11
% Step 6: Distribution: [1, 0, 0, 0, 0, 0, 0, 0, 0, 0, 1, 0, 1, 0]
% Step 7: Selected non-target node 11 (has 1 objects)
% Step 7: Avoiding backtrack to node 8
% Step 7: Moved object 11 -> 13
% Step 7: Distribution: [1, 0, 0, 0, 0, 0, 0, 0, 0, 0, 0, 0, 2, 0]
% Step 8: Selected non-target node 13 (has 2 objects)
% Step 8: Avoiding backtrack to node 11
% Step 8: Moved object 13 -> 7
% Step 8: Distribution: [1, 0, 0, 0, 0, 0, 1, 0, 0, 0, 0, 0, 1, 0]
% Step 9: Selected non-target node 1 (has 1 objects)
% Step 9: Avoiding backtrack to node 4
% Step 9: Moved object 1 -> 11
% Step 9: Distribution: [0, 0, 0, 0, 0, 0, 1, 0, 0, 0, 1, 0, 1, 0]
% Step 10: Selected non-target node 11 (has 1 objects)
% Step 10: Avoiding backtrack to node 1
% Step 10: Moved object 11 -> 14
% Step 10: Distribution: [0, 0, 0, 0, 0, 0, 1, 0, 0, 0, 0, 0, 1, 1]
% Step 11: Selected non-target node 14 (has 1 objects)
% Step 11: Avoiding backtrack to node 11
% Step 11: Moved object 14 -> 12
% Step 11: Distribution: [0, 0, 0, 0, 0, 0, 1, 0, 0, 0, 0, 1, 1, 0]
% Step 12: Selected non-target node 13 (has 1 objects)
% Step 12: Avoiding backtrack to node 11
% Step 12: Moved object 13 -> 7
% Step 12: Distribution: [0, 0, 0, 0, 0, 0, 2, 0, 0, 0, 0, 1, 0, 0]
% Step 13: Selected non-target node 7 (has 2 objects)
% Step 13: Avoiding backtrack to node 13
% Step 13: Moved object 7 -> 3
% Step 13: Distribution: [0, 0, 1, 0, 0, 0, 1, 0, 0, 0, 0, 1, 0, 0]
% Step 14: Selected non-target node 7 (has 1 objects)
% Step 14: Avoiding backtrack to node 13
% Step 14: Moved object 7 -> 1
% Step 14: Distribution: [1, 0, 1, 0, 0, 0, 0, 0, 0, 0, 0, 1, 0, 0]
% Truck starting position: 8
