% instance_n26_c0_k11_i82.dzn
% Generated instance for the Trucks problem
% N=26, h=6, k=11

% Number of nodes
N = 26;

% Number of objects
h = 6;

% Maximum plan length
%k = 11;

% Adjacency matrix (0-based internal, will be converted to 1-based)
Adj = [|0, 0, 0, 1, 0, 0, 0, 1, 0, 0, 0, 0, 0, 0, 0, 0, 0, 0, 1, 0, 0, 0, 0, 0, 0, 1
      |0, 0, 0, 0, 0, 0, 0, 0, 0, 1, 0, 0, 0, 0, 0, 0, 0, 0, 0, 0, 0, 0, 0, 0, 0, 0
      |0, 0, 0, 0, 0, 1, 0, 0, 0, 0, 0, 0, 0, 1, 0, 0, 0, 0, 0, 0, 0, 0, 0, 0, 0, 0
      |1, 0, 0, 0, 0, 0, 0, 0, 0, 1, 0, 0, 0, 0, 0, 1, 0, 0, 0, 0, 0, 0, 0, 0, 0, 0
      |0, 0, 0, 0, 0, 1, 0, 0, 0, 0, 0, 0, 0, 1, 0, 0, 0, 0, 0, 0, 0, 0, 0, 0, 0, 0
      |0, 0, 1, 0, 1, 0, 0, 0, 1, 0, 0, 0, 0, 0, 1, 0, 0, 0, 1, 1, 1, 0, 1, 0, 0, 0
      |0, 0, 0, 0, 0, 0, 0, 0, 0, 0, 0, 0, 0, 0, 0, 0, 0, 0, 0, 0, 0, 0, 0, 1, 0, 0
      |1, 0, 0, 0, 0, 0, 0, 0, 0, 0, 0, 0, 0, 0, 0, 0, 0, 0, 0, 0, 0, 0, 1, 0, 0, 0
      |0, 0, 0, 0, 0, 1, 0, 0, 0, 0, 0, 0, 0, 0, 0, 0, 0, 0, 0, 0, 0, 0, 0, 0, 0, 0
      |0, 1, 0, 1, 0, 0, 0, 0, 0, 0, 0, 0, 0, 0, 0, 0, 0, 1, 1, 0, 0, 0, 0, 0, 0, 0
      |0, 0, 0, 0, 0, 0, 0, 0, 0, 0, 0, 0, 0, 0, 0, 0, 0, 0, 0, 0, 0, 1, 0, 0, 1, 0
      |0, 0, 0, 0, 0, 0, 0, 0, 0, 0, 0, 0, 0, 0, 0, 1, 0, 0, 1, 0, 0, 0, 0, 0, 0, 0
      |0, 0, 0, 0, 0, 0, 0, 0, 0, 0, 0, 0, 0, 1, 0, 0, 0, 0, 1, 0, 0, 0, 0, 0, 0, 0
      |0, 0, 1, 0, 1, 0, 0, 0, 0, 0, 0, 0, 1, 0, 0, 0, 0, 0, 0, 0, 0, 0, 0, 0, 0, 0
      |0, 0, 0, 0, 0, 1, 0, 0, 0, 0, 0, 0, 0, 0, 0, 0, 0, 0, 0, 0, 0, 0, 0, 0, 1, 0
      |0, 0, 0, 1, 0, 0, 0, 0, 0, 0, 0, 1, 0, 0, 0, 0, 1, 0, 0, 0, 0, 0, 0, 0, 0, 0
      |0, 0, 0, 0, 0, 0, 0, 0, 0, 0, 0, 0, 0, 0, 0, 1, 0, 0, 0, 0, 0, 1, 0, 1, 0, 0
      |0, 0, 0, 0, 0, 0, 0, 0, 0, 1, 0, 0, 0, 0, 0, 0, 0, 0, 0, 1, 0, 0, 0, 0, 0, 0
      |1, 0, 0, 0, 0, 1, 0, 0, 0, 1, 0, 1, 1, 0, 0, 0, 0, 0, 0, 0, 0, 0, 0, 0, 0, 0
      |0, 0, 0, 0, 0, 1, 0, 0, 0, 0, 0, 0, 0, 0, 0, 0, 0, 1, 0, 0, 0, 0, 0, 0, 0, 0
      |0, 0, 0, 0, 0, 1, 0, 0, 0, 0, 0, 0, 0, 0, 0, 0, 0, 0, 0, 0, 0, 0, 0, 1, 0, 0
      |0, 0, 0, 0, 0, 0, 0, 0, 0, 0, 1, 0, 0, 0, 0, 0, 1, 0, 0, 0, 0, 0, 0, 0, 0, 0
      |0, 0, 0, 0, 0, 1, 0, 1, 0, 0, 0, 0, 0, 0, 0, 0, 0, 0, 0, 0, 0, 0, 0, 0, 0, 0
      |0, 0, 0, 0, 0, 0, 1, 0, 0, 0, 0, 0, 0, 0, 0, 0, 1, 0, 0, 0, 1, 0, 0, 0, 0, 1
      |0, 0, 0, 0, 0, 0, 0, 0, 0, 0, 1, 0, 0, 0, 1, 0, 0, 0, 0, 0, 0, 0, 0, 0, 0, 0
      |1, 0, 0, 0, 0, 0, 0, 0, 0, 0, 0, 0, 0, 0, 0, 0, 0, 0, 0, 0, 0, 0, 0, 1, 0, 0
      |];

% Weights matrix (edge weights)
% Weights = [|0, 0, 0, 2, 0, 0, 0, 4, 0, 0, 0, 0, 0, 0, 0, 0, 0, 0, 1, 0, 0, 0, 0, 0, 0, 3
%           |0, 0, 0, 0, 0, 0, 0, 0, 0, 3, 0, 0, 0, 0, 0, 0, 0, 0, 0, 0, 0, 0, 0, 0, 0, 0
%           |0, 0, 0, 0, 0, 1, 0, 0, 0, 0, 0, 0, 0, 5, 0, 0, 0, 0, 0, 0, 0, 0, 0, 0, 0, 0
%           |2, 0, 0, 0, 0, 0, 0, 0, 0, 4, 0, 0, 0, 0, 0, 5, 0, 0, 0, 0, 0, 0, 0, 0, 0, 0
%           |0, 0, 0, 0, 0, 5, 0, 0, 0, 0, 0, 0, 0, 3, 0, 0, 0, 0, 0, 0, 0, 0, 0, 0, 0, 0
%           |0, 0, 1, 0, 5, 0, 0, 0, 2, 0, 0, 0, 0, 0, 5, 0, 0, 0, 2, 2, 3, 0, 4, 0, 0, 0
%           |0, 0, 0, 0, 0, 0, 0, 0, 0, 0, 0, 0, 0, 0, 0, 0, 0, 0, 0, 0, 0, 0, 0, 4, 0, 0
%           |4, 0, 0, 0, 0, 0, 0, 0, 0, 0, 0, 0, 0, 0, 0, 0, 0, 0, 0, 0, 0, 0, 4, 0, 0, 0
%           |0, 0, 0, 0, 0, 2, 0, 0, 0, 0, 0, 0, 0, 0, 0, 0, 0, 0, 0, 0, 0, 0, 0, 0, 0, 0
%           |0, 3, 0, 4, 0, 0, 0, 0, 0, 0, 0, 0, 0, 0, 0, 0, 0, 1, 1, 0, 0, 0, 0, 0, 0, 0
%           |0, 0, 0, 0, 0, 0, 0, 0, 0, 0, 0, 0, 0, 0, 0, 0, 0, 0, 0, 0, 0, 5, 0, 0, 3, 0
%           |0, 0, 0, 0, 0, 0, 0, 0, 0, 0, 0, 0, 0, 0, 0, 5, 0, 0, 1, 0, 0, 0, 0, 0, 0, 0
%           |0, 0, 0, 0, 0, 0, 0, 0, 0, 0, 0, 0, 0, 2, 0, 0, 0, 0, 5, 0, 0, 0, 0, 0, 0, 0
%           |0, 0, 5, 0, 3, 0, 0, 0, 0, 0, 0, 0, 2, 0, 0, 0, 0, 0, 0, 0, 0, 0, 0, 0, 0, 0
%           |0, 0, 0, 0, 0, 5, 0, 0, 0, 0, 0, 0, 0, 0, 0, 0, 0, 0, 0, 0, 0, 0, 0, 0, 5, 0
%           |0, 0, 0, 5, 0, 0, 0, 0, 0, 0, 0, 5, 0, 0, 0, 0, 1, 0, 0, 0, 0, 0, 0, 0, 0, 0
%           |0, 0, 0, 0, 0, 0, 0, 0, 0, 0, 0, 0, 0, 0, 0, 1, 0, 0, 0, 0, 0, 5, 0, 2, 0, 0
%           |0, 0, 0, 0, 0, 0, 0, 0, 0, 1, 0, 0, 0, 0, 0, 0, 0, 0, 0, 5, 0, 0, 0, 0, 0, 0
%           |1, 0, 0, 0, 0, 2, 0, 0, 0, 1, 0, 1, 5, 0, 0, 0, 0, 0, 0, 0, 0, 0, 0, 0, 0, 0
%           |0, 0, 0, 0, 0, 2, 0, 0, 0, 0, 0, 0, 0, 0, 0, 0, 0, 5, 0, 0, 0, 0, 0, 0, 0, 0
%           |0, 0, 0, 0, 0, 3, 0, 0, 0, 0, 0, 0, 0, 0, 0, 0, 0, 0, 0, 0, 0, 0, 0, 2, 0, 0
%           |0, 0, 0, 0, 0, 0, 0, 0, 0, 0, 5, 0, 0, 0, 0, 0, 5, 0, 0, 0, 0, 0, 0, 0, 0, 0
%           |0, 0, 0, 0, 0, 4, 0, 4, 0, 0, 0, 0, 0, 0, 0, 0, 0, 0, 0, 0, 0, 0, 0, 0, 0, 0
%           |0, 0, 0, 0, 0, 0, 4, 0, 0, 0, 0, 0, 0, 0, 0, 0, 2, 0, 0, 0, 2, 0, 0, 0, 0, 2
%           |0, 0, 0, 0, 0, 0, 0, 0, 0, 0, 3, 0, 0, 0, 5, 0, 0, 0, 0, 0, 0, 0, 0, 0, 0, 0
%           |3, 0, 0, 0, 0, 0, 0, 0, 0, 0, 0, 0, 0, 0, 0, 0, 0, 0, 0, 0, 0, 0, 0, 2, 0, 0
%           |];

% Distance matrix
Dist = [|0, 5, 4, 2, 8, 3, 9, 4, 5, 2, 16, 2, 6, 8, 8, 7, 7, 3, 1, 5, 6, 12, 7, 5, 13, 3
      |5, 0, 7, 7, 11, 6, 14, 9, 8, 3, 19, 5, 9, 11, 11, 10, 11, 4, 4, 8, 9, 16, 10, 10, 16, 8
      |4, 7, 0, 6, 6, 1, 10, 8, 3, 4, 14, 4, 7, 5, 6, 9, 8, 5, 3, 3, 4, 13, 5, 6, 11, 7
      |2, 7, 6, 0, 10, 5, 11, 6, 7, 4, 16, 4, 8, 10, 10, 5, 6, 5, 3, 7, 8, 11, 9, 7, 15, 5
      |8, 11, 6, 10, 0, 5, 14, 12, 7, 8, 18, 8, 5, 3, 10, 13, 12, 9, 7, 7, 8, 17, 9, 10, 15, 11
      |3, 6, 1, 5, 5, 0, 9, 7, 2, 3, 13, 3, 7, 6, 5, 8, 7, 4, 2, 2, 3, 12, 4, 5, 10, 6
      |9, 14, 10, 11, 14, 9, 0, 13, 11, 11, 16, 11, 15, 15, 14, 7, 6, 12, 10, 11, 6, 11, 13, 4, 19, 6
      |4, 9, 8, 6, 12, 7, 13, 0, 9, 6, 20, 6, 10, 12, 12, 11, 11, 7, 5, 9, 10, 16, 4, 9, 17, 7
      |5, 8, 3, 7, 7, 2, 11, 9, 0, 5, 15, 5, 9, 8, 7, 10, 9, 6, 4, 4, 5, 14, 6, 7, 12, 8
      |2, 3, 4, 4, 8, 3, 11, 6, 5, 0, 16, 2, 6, 8, 8, 7, 8, 1, 1, 5, 6, 13, 7, 7, 13, 5
      |16, 19, 14, 16, 18, 13, 16, 20, 15, 16, 0, 16, 20, 19, 8, 11, 10, 17, 15, 15, 14, 5, 17, 12, 3, 14
      |2, 5, 4, 4, 8, 3, 11, 6, 5, 2, 16, 0, 6, 8, 8, 5, 6, 3, 1, 5, 6, 11, 7, 7, 13, 5
      |6, 9, 7, 8, 5, 7, 15, 10, 9, 6, 20, 6, 0, 2, 12, 11, 12, 7, 5, 9, 10, 17, 11, 11, 17, 9
      |8, 11, 5, 10, 3, 6, 15, 12, 8, 8, 19, 8, 2, 0, 11, 13, 13, 9, 7, 8, 9, 18, 10, 11, 16, 11
      |8, 11, 6, 10, 10, 5, 14, 12, 7, 8, 8, 8, 12, 11, 0, 13, 12, 9, 7, 7, 8, 13, 9, 10, 5, 11
      |7, 10, 9, 5, 13, 8, 7, 11, 10, 7, 11, 5, 11, 13, 13, 0, 1, 8, 6, 10, 5, 6, 12, 3, 14, 5
      |7, 11, 8, 6, 12, 7, 6, 11, 9, 8, 10, 6, 12, 13, 12, 1, 0, 9, 7, 9, 4, 5, 11, 2, 13, 4
      |3, 4, 5, 5, 9, 4, 12, 7, 6, 1, 17, 3, 7, 9, 9, 8, 9, 0, 2, 5, 7, 14, 8, 8, 14, 6
      |1, 4, 3, 3, 7, 2, 10, 5, 4, 1, 15, 1, 5, 7, 7, 6, 7, 2, 0, 4, 5, 12, 6, 6, 12, 4
      |5, 8, 3, 7, 7, 2, 11, 9, 4, 5, 15, 5, 9, 8, 7, 10, 9, 5, 4, 0, 5, 14, 6, 7, 12, 8
      |6, 9, 4, 8, 8, 3, 6, 10, 5, 6, 14, 6, 10, 9, 8, 5, 4, 7, 5, 5, 0, 9, 7, 2, 13, 4
      |12, 16, 13, 11, 17, 12, 11, 16, 14, 13, 5, 11, 17, 18, 13, 6, 5, 14, 12, 14, 9, 0, 16, 7, 8, 9
      |7, 10, 5, 9, 9, 4, 13, 4, 6, 7, 17, 7, 11, 10, 9, 12, 11, 8, 6, 6, 7, 16, 0, 9, 14, 10
      |5, 10, 6, 7, 10, 5, 4, 9, 7, 7, 12, 7, 11, 11, 10, 3, 2, 8, 6, 7, 2, 7, 9, 0, 15, 2
      |13, 16, 11, 15, 15, 10, 19, 17, 12, 13, 3, 13, 17, 16, 5, 14, 13, 14, 12, 12, 13, 8, 14, 15, 0, 16
      |3, 8, 7, 5, 11, 6, 6, 7, 8, 5, 14, 5, 9, 11, 11, 5, 4, 6, 4, 8, 4, 9, 10, 2, 16, 0
      |];

% Initial object distribution
S_init = [2, 0, 0, 1, 0, 0, 0, 0, 1, 0, 0, 0, 0, 0, 1, 1, 0, 0, 0, 0, 0, 0, 0, 0, 0, 0];

% Target nodes (1 if target, 0 otherwise)
T = [0, 0, 0, 0, 0, 0, 0, 0, 0, 0, 0, 1, 0, 1, 0, 0, 0, 0, 1, 0, 0, 1, 0, 0, 0, 1];

% Initial truck position (1-based indexing)
u = 2;

% --- DEBUG TRACE ---
% --- GENERATION TRACE (Backwards from Target) ---
% Initial distribution (all on targets): [0, 0, 0, 0, 0, 0, 0, 0, 0, 0, 0, 1, 0, 1, 0, 0, 0, 0, 1, 0, 0, 1, 0, 0, 0, 2]
% Step 1: Selected target node 12 (has 1 objects)
% Step 1: Moved object 12 -> 16
% Step 1: Distribution: [0, 0, 0, 0, 0, 0, 0, 0, 0, 0, 0, 0, 0, 1, 0, 1, 0, 0, 1, 0, 0, 1, 0, 0, 0, 2]
% Step 2: Selected target node 22 (has 1 objects)
% Step 2: Moved object 22 -> 11
% Step 2: Distribution: [0, 0, 0, 0, 0, 0, 0, 0, 0, 0, 1, 0, 0, 1, 0, 1, 0, 0, 1, 0, 0, 0, 0, 0, 0, 2]
% Step 3: Selected target node 14 (has 1 objects)
% Step 3: Moved object 14 -> 5
% Step 3: Distribution: [0, 0, 0, 0, 1, 0, 0, 0, 0, 0, 1, 0, 0, 0, 0, 1, 0, 0, 1, 0, 0, 0, 0, 0, 0, 2]
% Step 4: Selected target node 19 (has 1 objects)
% Step 4: Moved object 19 -> 1
% Step 4: Distribution: [1, 0, 0, 0, 1, 0, 0, 0, 0, 0, 1, 0, 0, 0, 0, 1, 0, 0, 0, 0, 0, 0, 0, 0, 0, 2]
% Step 5: Selected target node 26 (has 2 objects)
% Step 5: Moved object 26 -> 1
% Step 5: Distribution: [2, 0, 0, 0, 1, 0, 0, 0, 0, 0, 1, 0, 0, 0, 0, 1, 0, 0, 0, 0, 0, 0, 0, 0, 0, 1]
% Step 6: Selected target node 26 (has 1 objects)
% Step 6: Moved object 26 -> 1
% Step 6: Distribution: [3, 0, 0, 0, 1, 0, 0, 0, 0, 0, 1, 0, 0, 0, 0, 1, 0, 0, 0, 0, 0, 0, 0, 0, 0, 0]
% Step 7: Selected non-target node 11 (has 1 objects)
% Step 7: Avoiding backtrack to node 22
% Step 7: Moved object 11 -> 25
% Step 7: Distribution: [3, 0, 0, 0, 1, 0, 0, 0, 0, 0, 0, 0, 0, 0, 0, 1, 0, 0, 0, 0, 0, 0, 0, 0, 1, 0]
% Step 8: Selected non-target node 1 (has 3 objects)
% Step 8: Avoiding backtrack to node 26
% Step 8: Moved object 1 -> 4
% Step 8: Distribution: [2, 0, 0, 1, 1, 0, 0, 0, 0, 0, 0, 0, 0, 0, 0, 1, 0, 0, 0, 0, 0, 0, 0, 0, 1, 0]
% Step 9: Selected non-target node 5 (has 1 objects)
% Step 9: Avoiding backtrack to node 14
% Step 9: Moved object 5 -> 6
% Step 9: Distribution: [2, 0, 0, 1, 0, 1, 0, 0, 0, 0, 0, 0, 0, 0, 0, 1, 0, 0, 0, 0, 0, 0, 0, 0, 1, 0]
% Step 10: Selected non-target node 25 (has 1 objects)
% Step 10: Avoiding backtrack to node 11
% Step 10: Moved object 25 -> 15
% Step 10: Distribution: [2, 0, 0, 1, 0, 1, 0, 0, 0, 0, 0, 0, 0, 0, 1, 1, 0, 0, 0, 0, 0, 0, 0, 0, 0, 0]
% Step 11: Selected non-target node 6 (has 1 objects)
% Step 11: Avoiding backtrack to node 5
% Step 11: Moved object 6 -> 9
% Step 11: Distribution: [2, 0, 0, 1, 0, 0, 0, 0, 1, 0, 0, 0, 0, 0, 1, 1, 0, 0, 0, 0, 0, 0, 0, 0, 0, 0]
% Truck starting position: 2
