% instance_n26_c2_k11_i92.dzn
% Generated instance for the Trucks problem
% N=26, h=6, k=11

% Number of nodes
N = 26;

% Number of objects
h = 6;

% Maximum plan length
%k = 11;

% Adjacency matrix (0-based internal, will be converted to 1-based)
Adj = [|0, 0, 0, 0, 0, 0, 0, 1, 0, 0, 0, 0, 0, 0, 0, 0, 0, 0, 0, 1, 0, 1, 1, 0, 1, 1
      |0, 0, 0, 1, 0, 0, 0, 0, 0, 0, 0, 0, 0, 0, 0, 0, 0, 0, 0, 0, 0, 0, 0, 0, 0, 0
      |0, 0, 0, 0, 0, 0, 0, 0, 0, 0, 0, 0, 0, 0, 1, 0, 0, 0, 0, 0, 0, 0, 0, 1, 0, 0
      |0, 1, 0, 0, 0, 0, 0, 0, 0, 0, 0, 0, 0, 0, 0, 0, 0, 0, 0, 1, 0, 0, 0, 0, 0, 0
      |0, 0, 0, 0, 0, 0, 0, 0, 0, 0, 0, 0, 0, 0, 0, 0, 0, 0, 0, 0, 0, 0, 0, 0, 1, 0
      |0, 0, 0, 0, 0, 0, 0, 0, 0, 0, 0, 0, 0, 0, 1, 0, 0, 0, 0, 0, 0, 0, 0, 0, 0, 0
      |0, 0, 0, 0, 0, 0, 0, 0, 0, 0, 0, 0, 0, 0, 0, 1, 0, 0, 0, 0, 0, 1, 0, 0, 0, 1
      |1, 0, 0, 0, 0, 0, 0, 0, 0, 0, 0, 0, 0, 0, 0, 0, 0, 0, 0, 0, 0, 0, 0, 0, 0, 0
      |0, 0, 0, 0, 0, 0, 0, 0, 0, 0, 0, 0, 0, 0, 0, 0, 0, 0, 1, 1, 0, 1, 0, 1, 0, 0
      |0, 0, 0, 0, 0, 0, 0, 0, 0, 0, 1, 0, 0, 0, 0, 0, 0, 0, 0, 0, 0, 0, 0, 0, 0, 0
      |0, 0, 0, 0, 0, 0, 0, 0, 0, 1, 0, 0, 0, 0, 1, 1, 1, 0, 1, 1, 0, 0, 0, 1, 0, 0
      |0, 0, 0, 0, 0, 0, 0, 0, 0, 0, 0, 0, 0, 0, 0, 0, 0, 0, 0, 0, 0, 1, 0, 0, 0, 0
      |0, 0, 0, 0, 0, 0, 0, 0, 0, 0, 0, 0, 0, 0, 0, 0, 0, 0, 0, 1, 0, 0, 0, 0, 0, 0
      |0, 0, 0, 0, 0, 0, 0, 0, 0, 0, 0, 0, 0, 0, 0, 1, 0, 0, 0, 0, 0, 0, 0, 0, 0, 0
      |0, 0, 1, 0, 0, 1, 0, 0, 0, 0, 1, 0, 0, 0, 0, 0, 0, 0, 0, 0, 0, 0, 0, 0, 1, 0
      |0, 0, 0, 0, 0, 0, 1, 0, 0, 0, 1, 0, 0, 1, 0, 0, 0, 0, 0, 0, 0, 0, 0, 0, 0, 0
      |0, 0, 0, 0, 0, 0, 0, 0, 0, 0, 1, 0, 0, 0, 0, 0, 0, 0, 0, 0, 0, 0, 0, 0, 0, 0
      |0, 0, 0, 0, 0, 0, 0, 0, 0, 0, 0, 0, 0, 0, 0, 0, 0, 0, 0, 0, 0, 1, 0, 0, 0, 0
      |0, 0, 0, 0, 0, 0, 0, 0, 1, 0, 1, 0, 0, 0, 0, 0, 0, 0, 0, 0, 0, 0, 0, 0, 0, 0
      |1, 0, 0, 1, 0, 0, 0, 0, 1, 0, 1, 0, 1, 0, 0, 0, 0, 0, 0, 0, 1, 0, 1, 0, 1, 0
      |0, 0, 0, 0, 0, 0, 0, 0, 0, 0, 0, 0, 0, 0, 0, 0, 0, 0, 0, 1, 0, 0, 0, 0, 1, 0
      |1, 0, 0, 0, 0, 0, 1, 0, 1, 0, 0, 1, 0, 0, 0, 0, 0, 1, 0, 0, 0, 0, 0, 0, 0, 0
      |1, 0, 0, 0, 0, 0, 0, 0, 0, 0, 0, 0, 0, 0, 0, 0, 0, 0, 0, 1, 0, 0, 0, 0, 0, 0
      |0, 0, 1, 0, 0, 0, 0, 0, 1, 0, 1, 0, 0, 0, 0, 0, 0, 0, 0, 0, 0, 0, 0, 0, 0, 0
      |1, 0, 0, 0, 1, 0, 0, 0, 0, 0, 0, 0, 0, 0, 1, 0, 0, 0, 0, 1, 1, 0, 0, 0, 0, 0
      |1, 0, 0, 0, 0, 0, 1, 0, 0, 0, 0, 0, 0, 0, 0, 0, 0, 0, 0, 0, 0, 0, 0, 0, 0, 0
      |];

% Weights matrix (edge weights)
% Weights = [|0, 0, 0, 0, 0, 0, 0, 2, 0, 0, 0, 0, 0, 0, 0, 0, 0, 0, 0, 3, 0, 5, 4, 0, 2, 1
%           |0, 0, 0, 2, 0, 0, 0, 0, 0, 0, 0, 0, 0, 0, 0, 0, 0, 0, 0, 0, 0, 0, 0, 0, 0, 0
%           |0, 0, 0, 0, 0, 0, 0, 0, 0, 0, 0, 0, 0, 0, 3, 0, 0, 0, 0, 0, 0, 0, 0, 4, 0, 0
%           |0, 2, 0, 0, 0, 0, 0, 0, 0, 0, 0, 0, 0, 0, 0, 0, 0, 0, 0, 3, 0, 0, 0, 0, 0, 0
%           |0, 0, 0, 0, 0, 0, 0, 0, 0, 0, 0, 0, 0, 0, 0, 0, 0, 0, 0, 0, 0, 0, 0, 0, 4, 0
%           |0, 0, 0, 0, 0, 0, 0, 0, 0, 0, 0, 0, 0, 0, 4, 0, 0, 0, 0, 0, 0, 0, 0, 0, 0, 0
%           |0, 0, 0, 0, 0, 0, 0, 0, 0, 0, 0, 0, 0, 0, 0, 2, 0, 0, 0, 0, 0, 3, 0, 0, 0, 1
%           |2, 0, 0, 0, 0, 0, 0, 0, 0, 0, 0, 0, 0, 0, 0, 0, 0, 0, 0, 0, 0, 0, 0, 0, 0, 0
%           |0, 0, 0, 0, 0, 0, 0, 0, 0, 0, 0, 0, 0, 0, 0, 0, 0, 0, 3, 4, 0, 4, 0, 3, 0, 0
%           |0, 0, 0, 0, 0, 0, 0, 0, 0, 0, 1, 0, 0, 0, 0, 0, 0, 0, 0, 0, 0, 0, 0, 0, 0, 0
%           |0, 0, 0, 0, 0, 0, 0, 0, 0, 1, 0, 0, 0, 0, 2, 4, 3, 0, 4, 1, 0, 0, 0, 5, 0, 0
%           |0, 0, 0, 0, 0, 0, 0, 0, 0, 0, 0, 0, 0, 0, 0, 0, 0, 0, 0, 0, 0, 2, 0, 0, 0, 0
%           |0, 0, 0, 0, 0, 0, 0, 0, 0, 0, 0, 0, 0, 0, 0, 0, 0, 0, 0, 4, 0, 0, 0, 0, 0, 0
%           |0, 0, 0, 0, 0, 0, 0, 0, 0, 0, 0, 0, 0, 0, 0, 1, 0, 0, 0, 0, 0, 0, 0, 0, 0, 0
%           |0, 0, 3, 0, 0, 4, 0, 0, 0, 0, 2, 0, 0, 0, 0, 0, 0, 0, 0, 0, 0, 0, 0, 0, 1, 0
%           |0, 0, 0, 0, 0, 0, 2, 0, 0, 0, 4, 0, 0, 1, 0, 0, 0, 0, 0, 0, 0, 0, 0, 0, 0, 0
%           |0, 0, 0, 0, 0, 0, 0, 0, 0, 0, 3, 0, 0, 0, 0, 0, 0, 0, 0, 0, 0, 0, 0, 0, 0, 0
%           |0, 0, 0, 0, 0, 0, 0, 0, 0, 0, 0, 0, 0, 0, 0, 0, 0, 0, 0, 0, 0, 4, 0, 0, 0, 0
%           |0, 0, 0, 0, 0, 0, 0, 0, 3, 0, 4, 0, 0, 0, 0, 0, 0, 0, 0, 0, 0, 0, 0, 0, 0, 0
%           |3, 0, 0, 3, 0, 0, 0, 0, 4, 0, 1, 0, 4, 0, 0, 0, 0, 0, 0, 0, 1, 0, 3, 0, 1, 0
%           |0, 0, 0, 0, 0, 0, 0, 0, 0, 0, 0, 0, 0, 0, 0, 0, 0, 0, 0, 1, 0, 0, 0, 0, 5, 0
%           |5, 0, 0, 0, 0, 0, 3, 0, 4, 0, 0, 2, 0, 0, 0, 0, 0, 4, 0, 0, 0, 0, 0, 0, 0, 0
%           |4, 0, 0, 0, 0, 0, 0, 0, 0, 0, 0, 0, 0, 0, 0, 0, 0, 0, 0, 3, 0, 0, 0, 0, 0, 0
%           |0, 0, 4, 0, 0, 0, 0, 0, 3, 0, 5, 0, 0, 0, 0, 0, 0, 0, 0, 0, 0, 0, 0, 0, 0, 0
%           |2, 0, 0, 0, 4, 0, 0, 0, 0, 0, 0, 0, 0, 0, 1, 0, 0, 0, 0, 1, 5, 0, 0, 0, 0, 0
%           |1, 0, 0, 0, 0, 0, 1, 0, 0, 0, 0, 0, 0, 0, 0, 0, 0, 0, 0, 0, 0, 0, 0, 0, 0, 0
%           |];

% Distance matrix
Dist = [|0, 8, 6, 6, 6, 7, 2, 2, 7, 5, 4, 7, 7, 5, 3, 4, 7, 9, 8, 3, 4, 5, 4, 9, 2, 1
      |8, 0, 10, 2, 10, 11, 10, 10, 9, 7, 6, 15, 9, 11, 7, 10, 9, 17, 10, 5, 6, 13, 8, 11, 6, 9
      |6, 10, 0, 8, 8, 7, 8, 8, 7, 6, 5, 13, 9, 10, 3, 9, 8, 15, 9, 5, 6, 11, 8, 4, 4, 7
      |6, 2, 8, 0, 8, 9, 8, 8, 7, 5, 4, 13, 7, 9, 5, 8, 7, 15, 8, 3, 4, 11, 6, 9, 4, 7
      |6, 10, 8, 8, 0, 9, 8, 8, 9, 7, 6, 13, 9, 11, 5, 10, 9, 15, 10, 5, 6, 11, 8, 11, 4, 7
      |7, 11, 7, 9, 9, 0, 9, 9, 10, 7, 6, 14, 10, 11, 4, 10, 9, 16, 10, 6, 7, 12, 9, 11, 5, 8
      |2, 10, 8, 8, 8, 9, 0, 4, 7, 7, 6, 5, 9, 3, 5, 2, 9, 7, 10, 5, 6, 3, 6, 10, 4, 1
      |2, 10, 8, 8, 8, 9, 4, 0, 9, 7, 6, 9, 9, 7, 5, 6, 9, 11, 10, 5, 6, 7, 6, 11, 4, 3
      |7, 9, 7, 7, 9, 10, 7, 9, 0, 6, 5, 6, 8, 10, 6, 9, 8, 8, 3, 4, 5, 4, 7, 3, 5, 8
      |5, 7, 6, 5, 7, 7, 7, 7, 6, 0, 1, 12, 6, 6, 3, 5, 4, 14, 5, 2, 3, 10, 5, 6, 3, 6
      |4, 6, 5, 4, 6, 6, 6, 6, 5, 1, 0, 11, 5, 5, 2, 4, 3, 13, 4, 1, 2, 9, 4, 5, 2, 5
      |7, 15, 13, 13, 13, 14, 5, 9, 6, 12, 11, 0, 14, 8, 10, 7, 14, 6, 9, 10, 11, 2, 11, 9, 9, 6
      |7, 9, 9, 7, 9, 10, 9, 9, 8, 6, 5, 14, 0, 10, 6, 9, 8, 16, 9, 4, 5, 12, 7, 10, 5, 8
      |5, 11, 10, 9, 11, 11, 3, 7, 10, 6, 5, 8, 10, 0, 7, 1, 8, 10, 9, 6, 7, 6, 9, 10, 7, 4
      |3, 7, 3, 5, 5, 4, 5, 5, 6, 3, 2, 10, 6, 7, 0, 6, 5, 12, 6, 2, 3, 8, 5, 7, 1, 4
      |4, 10, 9, 8, 10, 10, 2, 6, 9, 5, 4, 7, 9, 1, 6, 0, 7, 9, 8, 5, 6, 5, 8, 9, 6, 3
      |7, 9, 8, 7, 9, 9, 9, 9, 8, 4, 3, 14, 8, 8, 5, 7, 0, 16, 7, 4, 5, 12, 7, 8, 5, 8
      |9, 17, 15, 15, 15, 16, 7, 11, 8, 14, 13, 6, 16, 10, 12, 9, 16, 0, 11, 12, 13, 4, 13, 11, 11, 8
      |8, 10, 9, 8, 10, 10, 10, 10, 3, 5, 4, 9, 9, 9, 6, 8, 7, 11, 0, 5, 6, 7, 8, 6, 6, 9
      |3, 5, 5, 3, 5, 6, 5, 5, 4, 2, 1, 10, 4, 6, 2, 5, 4, 12, 5, 0, 1, 8, 3, 6, 1, 4
      |4, 6, 6, 4, 6, 7, 6, 6, 5, 3, 2, 11, 5, 7, 3, 6, 5, 13, 6, 1, 0, 9, 4, 7, 2, 5
      |5, 13, 11, 11, 11, 12, 3, 7, 4, 10, 9, 2, 12, 6, 8, 5, 12, 4, 7, 8, 9, 0, 9, 7, 7, 4
      |4, 8, 8, 6, 8, 9, 6, 6, 7, 5, 4, 11, 7, 9, 5, 8, 7, 13, 8, 3, 4, 9, 0, 9, 4, 5
      |9, 11, 4, 9, 11, 11, 10, 11, 3, 6, 5, 9, 10, 10, 7, 9, 8, 11, 6, 6, 7, 7, 9, 0, 7, 10
      |2, 6, 4, 4, 4, 5, 4, 4, 5, 3, 2, 9, 5, 7, 1, 6, 5, 11, 6, 1, 2, 7, 4, 7, 0, 3
      |1, 9, 7, 7, 7, 8, 1, 3, 8, 6, 5, 6, 8, 4, 4, 3, 8, 8, 9, 4, 5, 4, 5, 10, 3, 0
      |];

% Initial object distribution
S_init = [0, 0, 0, 0, 0, 0, 1, 0, 0, 0, 2, 0, 0, 0, 0, 0, 1, 0, 0, 1, 1, 0, 0, 0, 0, 0];

% Target nodes (1 if target, 0 otherwise)
T = [0, 0, 0, 0, 0, 0, 0, 1, 1, 0, 0, 0, 0, 0, 1, 0, 0, 0, 1, 0, 0, 0, 0, 0, 0, 0];

% Initial truck position (1-based indexing)
u = 19;

% --- DEBUG TRACE ---
% --- GENERATION TRACE (Backwards from Target) ---
% Initial distribution (all on targets): [0, 0, 0, 0, 0, 0, 0, 2, 1, 0, 0, 0, 0, 0, 1, 0, 0, 0, 2, 0, 0, 0, 0, 0, 0, 0]
% Step 1: Selected target node 8 (has 2 objects)
% Step 1: Moved object 8 -> 1
% Step 1: Distribution: [1, 0, 0, 0, 0, 0, 0, 1, 1, 0, 0, 0, 0, 0, 1, 0, 0, 0, 2, 0, 0, 0, 0, 0, 0, 0]
% Step 2: Selected target node 9 (has 1 objects)
% Step 2: Moved object 9 -> 20
% Step 2: Distribution: [1, 0, 0, 0, 0, 0, 0, 1, 0, 0, 0, 0, 0, 0, 1, 0, 0, 0, 2, 1, 0, 0, 0, 0, 0, 0]
% Step 3: Selected target node 19 (has 2 objects)
% Step 3: Moved object 19 -> 11
% Step 3: Distribution: [1, 0, 0, 0, 0, 0, 0, 1, 0, 0, 1, 0, 0, 0, 1, 0, 0, 0, 1, 1, 0, 0, 0, 0, 0, 0]
% Step 4: Selected target node 15 (has 1 objects)
% Step 4: Moved object 15 -> 11
% Step 4: Distribution: [1, 0, 0, 0, 0, 0, 0, 1, 0, 0, 2, 0, 0, 0, 0, 0, 0, 0, 1, 1, 0, 0, 0, 0, 0, 0]
% Step 5: Selected target node 19 (has 1 objects)
% Step 5: Moved object 19 -> 11
% Step 5: Distribution: [1, 0, 0, 0, 0, 0, 0, 1, 0, 0, 3, 0, 0, 0, 0, 0, 0, 0, 0, 1, 0, 0, 0, 0, 0, 0]
% Step 6: Selected target node 8 (has 1 objects)
% Step 6: Moved object 8 -> 1
% Step 6: Distribution: [2, 0, 0, 0, 0, 0, 0, 0, 0, 0, 3, 0, 0, 0, 0, 0, 0, 0, 0, 1, 0, 0, 0, 0, 0, 0]
% Step 7: Selected non-target node 1 (has 2 objects)
% Step 7: Avoiding backtrack to node 8
% Step 7: Moved object 1 -> 20
% Step 7: Distribution: [1, 0, 0, 0, 0, 0, 0, 0, 0, 0, 3, 0, 0, 0, 0, 0, 0, 0, 0, 2, 0, 0, 0, 0, 0, 0]
% Step 8: Selected non-target node 11 (has 3 objects)
% Step 8: Avoiding backtrack to node 19
% Step 8: Moved object 11 -> 17
% Step 8: Distribution: [1, 0, 0, 0, 0, 0, 0, 0, 0, 0, 2, 0, 0, 0, 0, 0, 1, 0, 0, 2, 0, 0, 0, 0, 0, 0]
% Step 9: Selected non-target node 1 (has 1 objects)
% Step 9: Avoiding backtrack to node 8
% Step 9: Moved object 1 -> 22
% Step 9: Distribution: [0, 0, 0, 0, 0, 0, 0, 0, 0, 0, 2, 0, 0, 0, 0, 0, 1, 0, 0, 2, 0, 1, 0, 0, 0, 0]
% Step 10: Selected non-target node 22 (has 1 objects)
% Step 10: Avoiding backtrack to node 1
% Step 10: Moved object 22 -> 7
% Step 10: Distribution: [0, 0, 0, 0, 0, 0, 1, 0, 0, 0, 2, 0, 0, 0, 0, 0, 1, 0, 0, 2, 0, 0, 0, 0, 0, 0]
% Step 11: Selected non-target node 20 (has 2 objects)
% Step 11: Avoiding backtrack to node 1
% Step 11: Moved object 20 -> 21
% Step 11: Distribution: [0, 0, 0, 0, 0, 0, 1, 0, 0, 0, 2, 0, 0, 0, 0, 0, 1, 0, 0, 1, 1, 0, 0, 0, 0, 0]
% Truck starting position: 19
