% instance_n14_c0_k17_i24.dzn
% Generated instance for the Trucks problem
% N=14, h=3, k=17

% Number of nodes
N = 14;

% Number of objects
h = 3;

% Maximum plan length
%k = 17;

% Adjacency matrix (0-based internal, will be converted to 1-based)
Adj = [|0, 0, 0, 1, 0, 0, 0, 1, 0, 0, 0, 1, 0, 0
      |0, 0, 1, 1, 0, 1, 0, 0, 0, 0, 0, 0, 1, 0
      |0, 1, 0, 0, 0, 0, 0, 0, 0, 0, 1, 0, 0, 0
      |1, 1, 0, 0, 0, 0, 0, 0, 0, 0, 1, 1, 0, 0
      |0, 0, 0, 0, 0, 0, 0, 0, 0, 1, 0, 0, 0, 0
      |0, 1, 0, 0, 0, 0, 0, 0, 0, 0, 0, 0, 0, 0
      |0, 0, 0, 0, 0, 0, 0, 0, 0, 0, 1, 0, 0, 0
      |1, 0, 0, 0, 0, 0, 0, 0, 0, 1, 0, 0, 0, 0
      |0, 0, 0, 0, 0, 0, 0, 0, 0, 0, 1, 0, 0, 0
      |0, 0, 0, 0, 1, 0, 0, 1, 0, 0, 1, 0, 0, 0
      |0, 0, 1, 1, 0, 0, 1, 0, 1, 1, 0, 0, 1, 0
      |1, 0, 0, 1, 0, 0, 0, 0, 0, 0, 0, 0, 0, 1
      |0, 1, 0, 0, 0, 0, 0, 0, 0, 0, 1, 0, 0, 0
      |0, 0, 0, 0, 0, 0, 0, 0, 0, 0, 0, 1, 0, 0
      |];

% Weights matrix (edge weights)
% Weights = [|0, 0, 0, 4, 0, 0, 0, 1, 0, 0, 0, 3, 0, 0
%           |0, 0, 2, 3, 0, 1, 0, 0, 0, 0, 0, 0, 2, 0
%           |0, 2, 0, 0, 0, 0, 0, 0, 0, 0, 2, 0, 0, 0
%           |4, 3, 0, 0, 0, 0, 0, 0, 0, 0, 5, 4, 0, 0
%           |0, 0, 0, 0, 0, 0, 0, 0, 0, 3, 0, 0, 0, 0
%           |0, 1, 0, 0, 0, 0, 0, 0, 0, 0, 0, 0, 0, 0
%           |0, 0, 0, 0, 0, 0, 0, 0, 0, 0, 3, 0, 0, 0
%           |1, 0, 0, 0, 0, 0, 0, 0, 0, 2, 0, 0, 0, 0
%           |0, 0, 0, 0, 0, 0, 0, 0, 0, 0, 1, 0, 0, 0
%           |0, 0, 0, 0, 3, 0, 0, 2, 0, 0, 4, 0, 0, 0
%           |0, 0, 2, 5, 0, 0, 3, 0, 1, 4, 0, 0, 4, 0
%           |3, 0, 0, 4, 0, 0, 0, 0, 0, 0, 0, 0, 0, 3
%           |0, 2, 0, 0, 0, 0, 0, 0, 0, 0, 4, 0, 0, 0
%           |0, 0, 0, 0, 0, 0, 0, 0, 0, 0, 0, 3, 0, 0
%           |];

% Distance matrix
Dist = [|0, 7, 9, 4, 6, 8, 10, 1, 8, 3, 7, 3, 9, 6
      |7, 0, 2, 3, 11, 1, 7, 8, 5, 8, 4, 7, 2, 10
      |9, 2, 0, 5, 9, 3, 5, 8, 3, 6, 2, 9, 4, 12
      |4, 3, 5, 0, 10, 4, 8, 5, 6, 7, 5, 4, 5, 7
      |6, 11, 9, 10, 0, 12, 10, 5, 8, 3, 7, 9, 11, 12
      |8, 1, 3, 4, 12, 0, 8, 9, 6, 9, 5, 8, 3, 11
      |10, 7, 5, 8, 10, 8, 0, 9, 4, 7, 3, 12, 7, 15
      |1, 8, 8, 5, 5, 9, 9, 0, 7, 2, 6, 4, 10, 7
      |8, 5, 3, 6, 8, 6, 4, 7, 0, 5, 1, 10, 5, 13
      |3, 8, 6, 7, 3, 9, 7, 2, 5, 0, 4, 6, 8, 9
      |7, 4, 2, 5, 7, 5, 3, 6, 1, 4, 0, 9, 4, 12
      |3, 7, 9, 4, 9, 8, 12, 4, 10, 6, 9, 0, 9, 3
      |9, 2, 4, 5, 11, 3, 7, 10, 5, 8, 4, 9, 0, 12
      |6, 10, 12, 7, 12, 11, 15, 7, 13, 9, 12, 3, 12, 0
      |];

% Initial object distribution
S_init = [0, 0, 0, 0, 0, 0, 1, 0, 0, 1, 1, 0, 0, 0];

% Target nodes (1 if target, 0 otherwise)
T = [0, 0, 1, 0, 1, 0, 0, 1, 0, 0, 0, 0, 0, 0];

% Initial truck position (1-based indexing)
u = 13;

% --- DEBUG TRACE ---
% --- GENERATION TRACE (Backwards from Target) ---
% Initial distribution (all on targets): [0, 0, 1, 0, 1, 0, 0, 1, 0, 0, 0, 0, 0, 0]
% Step 1: Selected target node 3 (has 1 objects)
% Step 1: Moved object 3 -> 2
% Step 1: Distribution: [0, 1, 0, 0, 1, 0, 0, 1, 0, 0, 0, 0, 0, 0]
% Step 2: Selected target node 5 (has 1 objects)
% Step 2: Moved object 5 -> 10
% Step 2: Distribution: [0, 1, 0, 0, 0, 0, 0, 1, 0, 1, 0, 0, 0, 0]
% Step 3: Selected target node 8 (has 1 objects)
% Step 3: Moved object 8 -> 10
% Step 3: Distribution: [0, 1, 0, 0, 0, 0, 0, 0, 0, 2, 0, 0, 0, 0]
% Step 4: Selected non-target node 10 (has 2 objects)
% Step 4: Avoiding backtrack to node 8
% Step 4: Moved object 10 -> 11
% Step 4: Distribution: [0, 1, 0, 0, 0, 0, 0, 0, 0, 1, 1, 0, 0, 0]
% Step 5: Selected non-target node 11 (has 1 objects)
% Step 5: Avoiding backtrack to node 10
% Step 5: Moved object 11 -> 7
% Step 5: Distribution: [0, 1, 0, 0, 0, 0, 1, 0, 0, 1, 0, 0, 0, 0]
% Step 6: Selected non-target node 10 (has 1 objects)
% Step 6: Avoiding backtrack to node 8
% Step 6: Moved object 10 -> 11
% Step 6: Distribution: [0, 1, 0, 0, 0, 0, 1, 0, 0, 0, 1, 0, 0, 0]
% Step 7: Selected non-target node 11 (has 1 objects)
% Step 7: Avoiding backtrack to node 10
% Step 7: Moved object 11 -> 7
% Step 7: Distribution: [0, 1, 0, 0, 0, 0, 2, 0, 0, 0, 0, 0, 0, 0]
% Step 8: Selected non-target node 7 (has 2 objects)
% Step 8: Moved object 7 -> 11
% Step 8: Distribution: [0, 1, 0, 0, 0, 0, 1, 0, 0, 0, 1, 0, 0, 0]
% Step 9: Selected non-target node 2 (has 1 objects)
% Step 9: Avoiding backtrack to node 3
% Step 9: Moved object 2 -> 13
% Step 9: Distribution: [0, 0, 0, 0, 0, 0, 1, 0, 0, 0, 1, 0, 1, 0]
% Step 10: Selected non-target node 11 (has 1 objects)
% Step 10: Avoiding backtrack to node 7
% Step 10: Moved object 11 -> 10
% Step 10: Distribution: [0, 0, 0, 0, 0, 0, 1, 0, 0, 1, 0, 0, 1, 0]
% Step 11: Selected non-target node 10 (has 1 objects)
% Step 11: Moved object 10 -> 11
% Step 11: Distribution: [0, 0, 0, 0, 0, 0, 1, 0, 0, 0, 1, 0, 1, 0]
% Step 12: Selected non-target node 13 (has 1 objects)
% Step 12: Avoiding backtrack to node 2
% Step 12: Moved object 13 -> 11
% Step 12: Distribution: [0, 0, 0, 0, 0, 0, 1, 0, 0, 0, 2, 0, 0, 0]
% Step 13: Selected non-target node 7 (has 1 objects)
% Step 13: Moved object 7 -> 11
% Step 13: Distribution: [0, 0, 0, 0, 0, 0, 0, 0, 0, 0, 3, 0, 0, 0]
% Step 14: Selected non-target node 11 (has 3 objects)
% Step 14: Avoiding backtrack to node 7
% Step 14: Moved object 11 -> 10
% Step 14: Distribution: [0, 0, 0, 0, 0, 0, 0, 0, 0, 1, 2, 0, 0, 0]
% Step 15: Selected non-target node 11 (has 2 objects)
% Step 15: Avoiding backtrack to node 7
% Step 15: Moved object 11 -> 10
% Step 15: Distribution: [0, 0, 0, 0, 0, 0, 0, 0, 0, 2, 1, 0, 0, 0]
% Step 16: Selected non-target node 10 (has 2 objects)
% Step 16: Moved object 10 -> 11
% Step 16: Distribution: [0, 0, 0, 0, 0, 0, 0, 0, 0, 1, 2, 0, 0, 0]
% Step 17: Selected non-target node 11 (has 2 objects)
% Step 17: Avoiding backtrack to node 10
% Step 17: Moved object 11 -> 7
% Step 17: Distribution: [0, 0, 0, 0, 0, 0, 1, 0, 0, 1, 1, 0, 0, 0]
% Truck starting position: 13
