% instance_n18_c2_k11_i52.dzn
% Generated instance for the Trucks problem
% N=18, h=4, k=11

% Number of nodes
N = 18;

% Number of objects
h = 4;

% Maximum plan length
%k = 11;

% Adjacency matrix (0-based internal, will be converted to 1-based)
Adj = [|0, 0, 0, 0, 1, 0, 0, 0, 0, 0, 0, 1, 0, 0, 0, 0, 1, 1
      |0, 0, 0, 0, 1, 0, 0, 0, 0, 0, 0, 0, 0, 0, 0, 0, 0, 0
      |0, 0, 0, 0, 0, 0, 0, 0, 0, 1, 0, 0, 0, 0, 0, 0, 1, 0
      |0, 0, 0, 0, 0, 0, 0, 0, 1, 0, 0, 0, 0, 0, 0, 0, 0, 1
      |1, 1, 0, 0, 0, 0, 0, 1, 0, 0, 0, 0, 0, 0, 0, 0, 0, 0
      |0, 0, 0, 0, 0, 0, 0, 0, 1, 0, 0, 0, 0, 0, 0, 1, 0, 0
      |0, 0, 0, 0, 0, 0, 0, 0, 0, 0, 0, 0, 0, 1, 1, 0, 0, 0
      |0, 0, 0, 0, 1, 0, 0, 0, 1, 0, 0, 0, 0, 0, 0, 1, 0, 1
      |0, 0, 0, 1, 0, 1, 0, 1, 0, 0, 0, 0, 0, 0, 0, 0, 0, 0
      |0, 0, 1, 0, 0, 0, 0, 0, 0, 0, 0, 0, 0, 0, 0, 1, 0, 0
      |0, 0, 0, 0, 0, 0, 0, 0, 0, 0, 0, 0, 1, 0, 1, 0, 0, 0
      |1, 0, 0, 0, 0, 0, 0, 0, 0, 0, 0, 0, 0, 0, 0, 0, 0, 0
      |0, 0, 0, 0, 0, 0, 0, 0, 0, 0, 1, 0, 0, 0, 1, 0, 0, 0
      |0, 0, 0, 0, 0, 0, 1, 0, 0, 0, 0, 0, 0, 0, 0, 0, 0, 0
      |0, 0, 0, 0, 0, 0, 1, 0, 0, 0, 1, 0, 1, 0, 0, 1, 1, 0
      |0, 0, 0, 0, 0, 1, 0, 1, 0, 1, 0, 0, 0, 0, 1, 0, 0, 0
      |1, 0, 1, 0, 0, 0, 0, 0, 0, 0, 0, 0, 0, 0, 1, 0, 0, 0
      |1, 0, 0, 1, 0, 0, 0, 1, 0, 0, 0, 0, 0, 0, 0, 0, 0, 0
      |];

% Weights matrix (edge weights)
% Weights = [|0, 0, 0, 0, 2, 0, 0, 0, 0, 0, 0, 4, 0, 0, 0, 0, 5, 2
%           |0, 0, 0, 0, 4, 0, 0, 0, 0, 0, 0, 0, 0, 0, 0, 0, 0, 0
%           |0, 0, 0, 0, 0, 0, 0, 0, 0, 5, 0, 0, 0, 0, 0, 0, 1, 0
%           |0, 0, 0, 0, 0, 0, 0, 0, 1, 0, 0, 0, 0, 0, 0, 0, 0, 4
%           |2, 4, 0, 0, 0, 0, 0, 3, 0, 0, 0, 0, 0, 0, 0, 0, 0, 0
%           |0, 0, 0, 0, 0, 0, 0, 0, 4, 0, 0, 0, 0, 0, 0, 1, 0, 0
%           |0, 0, 0, 0, 0, 0, 0, 0, 0, 0, 0, 0, 0, 1, 4, 0, 0, 0
%           |0, 0, 0, 0, 3, 0, 0, 0, 5, 0, 0, 0, 0, 0, 0, 4, 0, 5
%           |0, 0, 0, 1, 0, 4, 0, 5, 0, 0, 0, 0, 0, 0, 0, 0, 0, 0
%           |0, 0, 5, 0, 0, 0, 0, 0, 0, 0, 0, 0, 0, 0, 0, 3, 0, 0
%           |0, 0, 0, 0, 0, 0, 0, 0, 0, 0, 0, 0, 3, 0, 1, 0, 0, 0
%           |4, 0, 0, 0, 0, 0, 0, 0, 0, 0, 0, 0, 0, 0, 0, 0, 0, 0
%           |0, 0, 0, 0, 0, 0, 0, 0, 0, 0, 3, 0, 0, 0, 1, 0, 0, 0
%           |0, 0, 0, 0, 0, 0, 1, 0, 0, 0, 0, 0, 0, 0, 0, 0, 0, 0
%           |0, 0, 0, 0, 0, 0, 4, 0, 0, 0, 1, 0, 1, 0, 0, 1, 4, 0
%           |0, 0, 0, 0, 0, 1, 0, 4, 0, 3, 0, 0, 0, 0, 1, 0, 0, 0
%           |5, 0, 1, 0, 0, 0, 0, 0, 0, 0, 0, 0, 0, 0, 4, 0, 0, 0
%           |2, 0, 0, 4, 0, 0, 0, 5, 0, 0, 0, 0, 0, 0, 0, 0, 0, 0
%           |];

% Distance matrix
Dist = [|0, 6, 6, 6, 2, 10, 13, 5, 7, 11, 10, 4, 10, 14, 9, 9, 5, 2
      |6, 0, 12, 12, 4, 12, 16, 7, 12, 14, 13, 10, 13, 17, 12, 11, 11, 8
      |6, 12, 0, 12, 8, 7, 9, 10, 11, 5, 6, 10, 6, 10, 5, 6, 1, 8
      |6, 12, 12, 0, 8, 5, 11, 6, 1, 9, 8, 10, 8, 12, 7, 6, 11, 4
      |2, 4, 8, 8, 0, 8, 12, 3, 8, 10, 9, 6, 9, 13, 8, 7, 7, 4
      |10, 12, 7, 5, 8, 0, 6, 5, 4, 4, 3, 14, 3, 7, 2, 1, 6, 9
      |13, 16, 9, 11, 12, 6, 0, 9, 10, 8, 5, 17, 5, 1, 4, 5, 8, 14
      |5, 7, 10, 6, 3, 5, 9, 0, 5, 7, 6, 9, 6, 10, 5, 4, 9, 5
      |7, 12, 11, 1, 8, 4, 10, 5, 0, 8, 7, 11, 7, 11, 6, 5, 10, 5
      |11, 14, 5, 9, 10, 4, 8, 7, 8, 0, 5, 15, 5, 9, 4, 3, 6, 12
      |10, 13, 6, 8, 9, 3, 5, 6, 7, 5, 0, 14, 2, 6, 1, 2, 5, 11
      |4, 10, 10, 10, 6, 14, 17, 9, 11, 15, 14, 0, 14, 18, 13, 13, 9, 6
      |10, 13, 6, 8, 9, 3, 5, 6, 7, 5, 2, 14, 0, 6, 1, 2, 5, 11
      |14, 17, 10, 12, 13, 7, 1, 10, 11, 9, 6, 18, 6, 0, 5, 6, 9, 15
      |9, 12, 5, 7, 8, 2, 4, 5, 6, 4, 1, 13, 1, 5, 0, 1, 4, 10
      |9, 11, 6, 6, 7, 1, 5, 4, 5, 3, 2, 13, 2, 6, 1, 0, 5, 9
      |5, 11, 1, 11, 7, 6, 8, 9, 10, 6, 5, 9, 5, 9, 4, 5, 0, 7
      |2, 8, 8, 4, 4, 9, 14, 5, 5, 12, 11, 6, 11, 15, 10, 9, 7, 0
      |];

% Initial object distribution
S_init = [0, 1, 0, 0, 0, 0, 0, 0, 0, 1, 0, 0, 0, 0, 0, 0, 1, 1];

% Target nodes (1 if target, 0 otherwise)
T = [0, 0, 1, 0, 0, 0, 0, 0, 0, 1, 0, 0, 1, 0, 0, 1, 0, 0];

% Initial truck position (1-based indexing)
u = 9;

% --- DEBUG TRACE ---
% --- GENERATION TRACE (Backwards from Target) ---
% Initial distribution (all on targets): [0, 0, 1, 0, 0, 0, 0, 0, 0, 1, 0, 0, 1, 0, 0, 1, 0, 0]
% Step 1: Selected target node 3 (has 1 objects)
% Step 1: Moved object 3 -> 17
% Step 1: Distribution: [0, 0, 0, 0, 0, 0, 0, 0, 0, 1, 0, 0, 1, 0, 0, 1, 1, 0]
% Step 2: Selected target node 10 (has 1 objects)
% Step 2: Selected target node 16 (has 1 objects)
% Step 2: Moved object 16 -> 6
% Step 2: Distribution: [0, 0, 0, 0, 0, 1, 0, 0, 0, 1, 0, 0, 1, 0, 0, 0, 1, 0]
% Step 3: Selected target node 13 (has 1 objects)
% Step 3: Moved object 13 -> 11
% Step 3: Distribution: [0, 0, 0, 0, 0, 1, 0, 0, 0, 1, 1, 0, 0, 0, 0, 0, 1, 0]
% Step 4: Selected target node 10 (has 1 objects)
% Step 4: Selected non-target node 17 (has 1 objects)
% Step 4: Avoiding backtrack to node 3
% Step 4: Moved object 17 -> 1
% Step 4: Distribution: [1, 0, 0, 0, 0, 1, 0, 0, 0, 1, 1, 0, 0, 0, 0, 0, 0, 0]
% Step 5: Selected target node 10 (has 1 objects)
% Step 5: Selected non-target node 6 (has 1 objects)
% Step 5: Avoiding backtrack to node 16
% Step 5: Moved object 6 -> 9
% Step 5: Distribution: [1, 0, 0, 0, 0, 0, 0, 0, 1, 1, 1, 0, 0, 0, 0, 0, 0, 0]
% Step 6: Selected target node 10 (has 1 objects)
% Step 6: Selected non-target node 9 (has 1 objects)
% Step 6: Avoiding backtrack to node 6
% Step 6: Moved object 9 -> 8
% Step 6: Distribution: [1, 0, 0, 0, 0, 0, 0, 1, 0, 1, 1, 0, 0, 0, 0, 0, 0, 0]
% Step 7: Selected target node 10 (has 1 objects)
% Step 7: Selected non-target node 1 (has 1 objects)
% Step 7: Avoiding backtrack to node 17
% Step 7: Moved object 1 -> 5
% Step 7: Distribution: [0, 0, 0, 0, 1, 0, 0, 1, 0, 1, 1, 0, 0, 0, 0, 0, 0, 0]
% Step 8: Selected target node 10 (has 1 objects)
% Step 8: Selected non-target node 11 (has 1 objects)
% Step 8: Avoiding backtrack to node 13
% Step 8: Moved object 11 -> 15
% Step 8: Distribution: [0, 0, 0, 0, 1, 0, 0, 1, 0, 1, 0, 0, 0, 0, 1, 0, 0, 0]
% Step 9: Selected target node 10 (has 1 objects)
% Step 9: Selected non-target node 8 (has 1 objects)
% Step 9: Avoiding backtrack to node 9
% Step 9: Moved object 8 -> 18
% Step 9: Distribution: [0, 0, 0, 0, 1, 0, 0, 0, 0, 1, 0, 0, 0, 0, 1, 0, 0, 1]
% Step 10: Selected target node 10 (has 1 objects)
% Step 10: Selected non-target node 5 (has 1 objects)
% Step 10: Avoiding backtrack to node 1
% Step 10: Moved object 5 -> 2
% Step 10: Distribution: [0, 1, 0, 0, 0, 0, 0, 0, 0, 1, 0, 0, 0, 0, 1, 0, 0, 1]
% Step 11: Selected target node 10 (has 1 objects)
% Step 11: Selected non-target node 15 (has 1 objects)
% Step 11: Avoiding backtrack to node 11
% Step 11: Moved object 15 -> 17
% Step 11: Distribution: [0, 1, 0, 0, 0, 0, 0, 0, 0, 1, 0, 0, 0, 0, 0, 0, 1, 1]
% Truck starting position: 9
