% instance_n18_c3_k5_i55.dzn
% Generated instance for the Trucks problem
% N=18, h=4, k=5

% Number of nodes
N = 18;

% Number of objects
h = 4;

% Maximum plan length
%k = 5;

% Adjacency matrix (0-based internal, will be converted to 1-based)
Adj = [|0, 1, 1, 0, 0, 0, 1, 0, 0, 0, 0, 0, 1, 0, 0, 1, 0, 0
      |1, 0, 0, 0, 0, 0, 0, 1, 0, 0, 0, 1, 0, 0, 0, 0, 0, 1
      |1, 0, 0, 0, 0, 0, 0, 0, 0, 0, 0, 0, 0, 0, 1, 0, 0, 0
      |0, 0, 0, 0, 0, 0, 0, 1, 0, 0, 0, 0, 0, 0, 0, 0, 0, 0
      |0, 0, 0, 0, 0, 0, 0, 0, 1, 0, 0, 0, 0, 0, 0, 0, 1, 0
      |0, 0, 0, 0, 0, 0, 0, 0, 0, 1, 0, 0, 0, 1, 0, 0, 0, 0
      |1, 0, 0, 0, 0, 0, 0, 0, 0, 0, 0, 0, 0, 1, 0, 0, 0, 0
      |0, 1, 0, 1, 0, 0, 0, 0, 0, 0, 0, 0, 0, 0, 1, 0, 0, 0
      |0, 0, 0, 0, 1, 0, 0, 0, 0, 0, 0, 0, 0, 0, 1, 0, 0, 1
      |0, 0, 0, 0, 0, 1, 0, 0, 0, 0, 0, 0, 0, 0, 0, 0, 0, 0
      |0, 0, 0, 0, 0, 0, 0, 0, 0, 0, 0, 0, 0, 0, 0, 1, 0, 0
      |0, 1, 0, 0, 0, 0, 0, 0, 0, 0, 0, 0, 0, 0, 0, 0, 0, 0
      |1, 0, 0, 0, 0, 0, 0, 0, 0, 0, 0, 0, 0, 0, 0, 0, 0, 0
      |0, 0, 0, 0, 0, 1, 1, 0, 0, 0, 0, 0, 0, 0, 0, 0, 0, 0
      |0, 0, 1, 0, 0, 0, 0, 1, 1, 0, 0, 0, 0, 0, 0, 1, 0, 1
      |1, 0, 0, 0, 0, 0, 0, 0, 0, 0, 1, 0, 0, 0, 1, 0, 0, 0
      |0, 0, 0, 0, 1, 0, 0, 0, 0, 0, 0, 0, 0, 0, 0, 0, 0, 0
      |0, 1, 0, 0, 0, 0, 0, 0, 1, 0, 0, 0, 0, 0, 1, 0, 0, 0
      |];

% Weights matrix (edge weights)
% Weights = [|0, 3, 4, 0, 0, 0, 5, 0, 0, 0, 0, 0, 4, 0, 0, 2, 0, 0
%           |3, 0, 0, 0, 0, 0, 0, 3, 0, 0, 0, 2, 0, 0, 0, 0, 0, 3
%           |4, 0, 0, 0, 0, 0, 0, 0, 0, 0, 0, 0, 0, 0, 5, 0, 0, 0
%           |0, 0, 0, 0, 0, 0, 0, 2, 0, 0, 0, 0, 0, 0, 0, 0, 0, 0
%           |0, 0, 0, 0, 0, 0, 0, 0, 1, 0, 0, 0, 0, 0, 0, 0, 5, 0
%           |0, 0, 0, 0, 0, 0, 0, 0, 0, 2, 0, 0, 0, 4, 0, 0, 0, 0
%           |5, 0, 0, 0, 0, 0, 0, 0, 0, 0, 0, 0, 0, 1, 0, 0, 0, 0
%           |0, 3, 0, 2, 0, 0, 0, 0, 0, 0, 0, 0, 0, 0, 1, 0, 0, 0
%           |0, 0, 0, 0, 1, 0, 0, 0, 0, 0, 0, 0, 0, 0, 2, 0, 0, 4
%           |0, 0, 0, 0, 0, 2, 0, 0, 0, 0, 0, 0, 0, 0, 0, 0, 0, 0
%           |0, 0, 0, 0, 0, 0, 0, 0, 0, 0, 0, 0, 0, 0, 0, 4, 0, 0
%           |0, 2, 0, 0, 0, 0, 0, 0, 0, 0, 0, 0, 0, 0, 0, 0, 0, 0
%           |4, 0, 0, 0, 0, 0, 0, 0, 0, 0, 0, 0, 0, 0, 0, 0, 0, 0
%           |0, 0, 0, 0, 0, 4, 1, 0, 0, 0, 0, 0, 0, 0, 0, 0, 0, 0
%           |0, 0, 5, 0, 0, 0, 0, 1, 2, 0, 0, 0, 0, 0, 0, 5, 0, 3
%           |2, 0, 0, 0, 0, 0, 0, 0, 0, 0, 4, 0, 0, 0, 5, 0, 0, 0
%           |0, 0, 0, 0, 5, 0, 0, 0, 0, 0, 0, 0, 0, 0, 0, 0, 0, 0
%           |0, 3, 0, 0, 0, 0, 0, 0, 4, 0, 0, 0, 0, 0, 3, 0, 0, 0
%           |];

% Distance matrix
Dist = [|0, 3, 4, 8, 10, 10, 5, 6, 9, 12, 6, 5, 4, 6, 7, 2, 15, 6
      |3, 0, 7, 5, 7, 13, 8, 3, 6, 15, 9, 2, 7, 9, 4, 5, 12, 3
      |4, 7, 0, 8, 8, 14, 9, 6, 7, 16, 10, 9, 8, 10, 5, 6, 13, 8
      |8, 5, 8, 0, 6, 18, 13, 2, 5, 20, 12, 7, 12, 14, 3, 8, 11, 6
      |10, 7, 8, 6, 0, 20, 15, 4, 1, 22, 12, 9, 14, 16, 3, 8, 5, 5
      |10, 13, 14, 18, 20, 0, 5, 16, 19, 2, 16, 15, 14, 4, 17, 12, 25, 16
      |5, 8, 9, 13, 15, 5, 0, 11, 14, 7, 11, 10, 9, 1, 12, 7, 20, 11
      |6, 3, 6, 2, 4, 16, 11, 0, 3, 18, 10, 5, 10, 12, 1, 6, 9, 4
      |9, 6, 7, 5, 1, 19, 14, 3, 0, 21, 11, 8, 13, 15, 2, 7, 6, 4
      |12, 15, 16, 20, 22, 2, 7, 18, 21, 0, 18, 17, 16, 6, 19, 14, 27, 18
      |6, 9, 10, 12, 12, 16, 11, 10, 11, 18, 0, 11, 10, 12, 9, 4, 17, 12
      |5, 2, 9, 7, 9, 15, 10, 5, 8, 17, 11, 0, 9, 11, 6, 7, 14, 5
      |4, 7, 8, 12, 14, 14, 9, 10, 13, 16, 10, 9, 0, 10, 11, 6, 19, 10
      |6, 9, 10, 14, 16, 4, 1, 12, 15, 6, 12, 11, 10, 0, 13, 8, 21, 12
      |7, 4, 5, 3, 3, 17, 12, 1, 2, 19, 9, 6, 11, 13, 0, 5, 8, 3
      |2, 5, 6, 8, 8, 12, 7, 6, 7, 14, 4, 7, 6, 8, 5, 0, 13, 8
      |15, 12, 13, 11, 5, 25, 20, 9, 6, 27, 17, 14, 19, 21, 8, 13, 0, 10
      |6, 3, 8, 6, 5, 16, 11, 4, 4, 18, 12, 5, 10, 12, 3, 8, 10, 0
      |];

% Initial object distribution
S_init = [0, 0, 1, 0, 0, 0, 0, 1, 0, 1, 0, 0, 0, 0, 1, 0, 0, 0];

% Target nodes (1 if target, 0 otherwise)
T = [0, 0, 0, 1, 0, 1, 0, 0, 0, 0, 0, 0, 0, 0, 0, 0, 0, 1];

% Initial truck position (1-based indexing)
u = 2;

% --- DEBUG TRACE ---
% --- GENERATION TRACE (Backwards from Target) ---
% Initial distribution (all on targets): [0, 0, 0, 1, 0, 1, 0, 0, 0, 0, 0, 0, 0, 0, 0, 0, 0, 2]
% Step 1: Selected target node 4 (has 1 objects)
% Step 1: Moved object 4 -> 8
% Step 1: Distribution: [0, 0, 0, 0, 0, 1, 0, 1, 0, 0, 0, 0, 0, 0, 0, 0, 0, 2]
% Step 2: Selected target node 6 (has 1 objects)
% Step 2: Moved object 6 -> 10
% Step 2: Distribution: [0, 0, 0, 0, 0, 0, 0, 1, 0, 1, 0, 0, 0, 0, 0, 0, 0, 2]
% Step 3: Selected target node 18 (has 2 objects)
% Step 3: Moved object 18 -> 15
% Step 3: Distribution: [0, 0, 0, 0, 0, 0, 0, 1, 0, 1, 0, 0, 0, 0, 1, 0, 0, 1]
% Step 4: Selected target node 18 (has 1 objects)
% Step 4: Moved object 18 -> 15
% Step 4: Distribution: [0, 0, 0, 0, 0, 0, 0, 1, 0, 1, 0, 0, 0, 0, 2, 0, 0, 0]
% Step 5: Selected non-target node 15 (has 2 objects)
% Step 5: Avoiding backtrack to node 18
% Step 5: Moved object 15 -> 3
% Step 5: Distribution: [0, 0, 1, 0, 0, 0, 0, 1, 0, 1, 0, 0, 0, 0, 1, 0, 0, 0]
% Truck starting position: 2
