% instance_n22_c2_k14_i73.dzn
% Generated instance for the Trucks problem
% N=22, h=5, k=14

% Number of nodes
N = 22;

% Number of objects
h = 5;

% Maximum plan length
%k = 14;

% Adjacency matrix (0-based internal, will be converted to 1-based)
Adj = [|0, 0, 0, 1, 0, 0, 0, 0, 0, 1, 0, 0, 1, 0, 0, 0, 0, 0, 0, 1, 0, 0
      |0, 0, 0, 0, 0, 0, 0, 0, 0, 1, 0, 0, 0, 0, 0, 0, 0, 0, 0, 0, 0, 0
      |0, 0, 0, 0, 0, 0, 0, 0, 0, 0, 0, 0, 0, 0, 0, 0, 1, 0, 0, 0, 0, 0
      |1, 0, 0, 0, 0, 0, 0, 0, 0, 0, 0, 0, 0, 0, 0, 0, 0, 0, 0, 0, 0, 0
      |0, 0, 0, 0, 0, 0, 0, 0, 0, 0, 0, 0, 0, 0, 0, 0, 0, 1, 0, 1, 0, 0
      |0, 0, 0, 0, 0, 0, 1, 0, 0, 1, 0, 0, 0, 0, 0, 0, 0, 1, 0, 0, 0, 0
      |0, 0, 0, 0, 0, 1, 0, 0, 1, 0, 0, 0, 0, 0, 0, 0, 0, 0, 0, 0, 0, 0
      |0, 0, 0, 0, 0, 0, 0, 0, 0, 1, 0, 0, 0, 0, 0, 0, 0, 0, 1, 0, 0, 0
      |0, 0, 0, 0, 0, 0, 1, 0, 0, 1, 0, 0, 0, 0, 0, 0, 0, 0, 0, 0, 0, 0
      |1, 1, 0, 0, 0, 1, 0, 1, 1, 0, 1, 1, 1, 0, 0, 1, 1, 0, 0, 0, 0, 1
      |0, 0, 0, 0, 0, 0, 0, 0, 0, 1, 0, 0, 1, 0, 0, 0, 0, 0, 0, 0, 0, 0
      |0, 0, 0, 0, 0, 0, 0, 0, 0, 1, 0, 0, 0, 0, 0, 0, 0, 0, 0, 0, 1, 0
      |1, 0, 0, 0, 0, 0, 0, 0, 0, 1, 1, 0, 0, 0, 0, 0, 0, 0, 0, 1, 0, 0
      |0, 0, 0, 0, 0, 0, 0, 0, 0, 0, 0, 0, 0, 0, 0, 0, 0, 0, 1, 0, 1, 0
      |0, 0, 0, 0, 0, 0, 0, 0, 0, 0, 0, 0, 0, 0, 0, 0, 1, 0, 0, 0, 0, 0
      |0, 0, 0, 0, 0, 0, 0, 0, 0, 1, 0, 0, 0, 0, 0, 0, 0, 0, 0, 0, 0, 0
      |0, 0, 1, 0, 0, 0, 0, 0, 0, 1, 0, 0, 0, 0, 1, 0, 0, 0, 0, 0, 0, 0
      |0, 0, 0, 0, 1, 1, 0, 0, 0, 0, 0, 0, 0, 0, 0, 0, 0, 0, 0, 0, 0, 0
      |0, 0, 0, 0, 0, 0, 0, 1, 0, 0, 0, 0, 0, 1, 0, 0, 0, 0, 0, 1, 0, 0
      |1, 0, 0, 0, 1, 0, 0, 0, 0, 0, 0, 0, 1, 0, 0, 0, 0, 0, 1, 0, 0, 0
      |0, 0, 0, 0, 0, 0, 0, 0, 0, 0, 0, 1, 0, 1, 0, 0, 0, 0, 0, 0, 0, 1
      |0, 0, 0, 0, 0, 0, 0, 0, 0, 1, 0, 0, 0, 0, 0, 0, 0, 0, 0, 0, 1, 0
      |];

% Weights matrix (edge weights)
% Weights = [|0, 0, 0, 5, 0, 0, 0, 0, 0, 5, 0, 0, 5, 0, 0, 0, 0, 0, 0, 4, 0, 0
%           |0, 0, 0, 0, 0, 0, 0, 0, 0, 3, 0, 0, 0, 0, 0, 0, 0, 0, 0, 0, 0, 0
%           |0, 0, 0, 0, 0, 0, 0, 0, 0, 0, 0, 0, 0, 0, 0, 0, 1, 0, 0, 0, 0, 0
%           |5, 0, 0, 0, 0, 0, 0, 0, 0, 0, 0, 0, 0, 0, 0, 0, 0, 0, 0, 0, 0, 0
%           |0, 0, 0, 0, 0, 0, 0, 0, 0, 0, 0, 0, 0, 0, 0, 0, 0, 5, 0, 3, 0, 0
%           |0, 0, 0, 0, 0, 0, 4, 0, 0, 2, 0, 0, 0, 0, 0, 0, 0, 4, 0, 0, 0, 0
%           |0, 0, 0, 0, 0, 4, 0, 0, 2, 0, 0, 0, 0, 0, 0, 0, 0, 0, 0, 0, 0, 0
%           |0, 0, 0, 0, 0, 0, 0, 0, 0, 5, 0, 0, 0, 0, 0, 0, 0, 0, 3, 0, 0, 0
%           |0, 0, 0, 0, 0, 0, 2, 0, 0, 1, 0, 0, 0, 0, 0, 0, 0, 0, 0, 0, 0, 0
%           |5, 3, 0, 0, 0, 2, 0, 5, 1, 0, 2, 1, 2, 0, 0, 3, 3, 0, 0, 0, 0, 4
%           |0, 0, 0, 0, 0, 0, 0, 0, 0, 2, 0, 0, 4, 0, 0, 0, 0, 0, 0, 0, 0, 0
%           |0, 0, 0, 0, 0, 0, 0, 0, 0, 1, 0, 0, 0, 0, 0, 0, 0, 0, 0, 0, 4, 0
%           |5, 0, 0, 0, 0, 0, 0, 0, 0, 2, 4, 0, 0, 0, 0, 0, 0, 0, 0, 1, 0, 0
%           |0, 0, 0, 0, 0, 0, 0, 0, 0, 0, 0, 0, 0, 0, 0, 0, 0, 0, 5, 0, 4, 0
%           |0, 0, 0, 0, 0, 0, 0, 0, 0, 0, 0, 0, 0, 0, 0, 0, 2, 0, 0, 0, 0, 0
%           |0, 0, 0, 0, 0, 0, 0, 0, 0, 3, 0, 0, 0, 0, 0, 0, 0, 0, 0, 0, 0, 0
%           |0, 0, 1, 0, 0, 0, 0, 0, 0, 3, 0, 0, 0, 0, 2, 0, 0, 0, 0, 0, 0, 0
%           |0, 0, 0, 0, 5, 4, 0, 0, 0, 0, 0, 0, 0, 0, 0, 0, 0, 0, 0, 0, 0, 0
%           |0, 0, 0, 0, 0, 0, 0, 3, 0, 0, 0, 0, 0, 5, 0, 0, 0, 0, 0, 5, 0, 0
%           |4, 0, 0, 0, 3, 0, 0, 0, 0, 0, 0, 0, 1, 0, 0, 0, 0, 0, 5, 0, 0, 0
%           |0, 0, 0, 0, 0, 0, 0, 0, 0, 0, 0, 4, 0, 4, 0, 0, 0, 0, 0, 0, 0, 5
%           |0, 0, 0, 0, 0, 0, 0, 0, 0, 4, 0, 0, 0, 0, 0, 0, 0, 0, 0, 0, 5, 0
%           |];

% Distance matrix
Dist = [|0, 8, 9, 5, 7, 7, 8, 10, 6, 5, 7, 6, 5, 14, 10, 8, 8, 11, 9, 4, 10, 9
      |8, 0, 7, 13, 9, 5, 6, 8, 4, 3, 5, 4, 5, 12, 8, 6, 6, 9, 11, 6, 8, 7
      |9, 7, 0, 14, 10, 6, 7, 9, 5, 4, 6, 5, 6, 13, 3, 7, 1, 10, 12, 7, 9, 8
      |5, 13, 14, 0, 12, 12, 13, 15, 11, 10, 12, 11, 10, 19, 15, 13, 13, 16, 14, 9, 15, 14
      |7, 9, 10, 12, 0, 8, 9, 11, 7, 6, 8, 7, 4, 13, 11, 9, 9, 5, 8, 3, 11, 10
      |7, 5, 6, 12, 8, 0, 4, 7, 3, 2, 4, 3, 4, 11, 7, 5, 5, 4, 10, 5, 7, 6
      |8, 6, 7, 13, 9, 4, 0, 8, 2, 3, 5, 4, 5, 12, 8, 6, 6, 8, 11, 6, 8, 7
      |10, 8, 9, 15, 11, 7, 8, 0, 6, 5, 7, 6, 7, 8, 10, 8, 8, 11, 3, 8, 10, 9
      |6, 4, 5, 11, 7, 3, 2, 6, 0, 1, 3, 2, 3, 10, 6, 4, 4, 7, 9, 4, 6, 5
      |5, 3, 4, 10, 6, 2, 3, 5, 1, 0, 2, 1, 2, 9, 5, 3, 3, 6, 8, 3, 5, 4
      |7, 5, 6, 12, 8, 4, 5, 7, 3, 2, 0, 3, 4, 11, 7, 5, 5, 8, 10, 5, 7, 6
      |6, 4, 5, 11, 7, 3, 4, 6, 2, 1, 3, 0, 3, 8, 6, 4, 4, 7, 9, 4, 4, 5
      |5, 5, 6, 10, 4, 4, 5, 7, 3, 2, 4, 3, 0, 11, 7, 5, 5, 8, 6, 1, 7, 6
      |14, 12, 13, 19, 13, 11, 12, 8, 10, 9, 11, 8, 11, 0, 14, 12, 12, 15, 5, 10, 4, 9
      |10, 8, 3, 15, 11, 7, 8, 10, 6, 5, 7, 6, 7, 14, 0, 8, 2, 11, 13, 8, 10, 9
      |8, 6, 7, 13, 9, 5, 6, 8, 4, 3, 5, 4, 5, 12, 8, 0, 6, 9, 11, 6, 8, 7
      |8, 6, 1, 13, 9, 5, 6, 8, 4, 3, 5, 4, 5, 12, 2, 6, 0, 9, 11, 6, 8, 7
      |11, 9, 10, 16, 5, 4, 8, 11, 7, 6, 8, 7, 8, 15, 11, 9, 9, 0, 13, 8, 11, 10
      |9, 11, 12, 14, 8, 10, 11, 3, 9, 8, 10, 9, 6, 5, 13, 11, 11, 13, 0, 5, 9, 12
      |4, 6, 7, 9, 3, 5, 6, 8, 4, 3, 5, 4, 1, 10, 8, 6, 6, 8, 5, 0, 8, 7
      |10, 8, 9, 15, 11, 7, 8, 10, 6, 5, 7, 4, 7, 4, 10, 8, 8, 11, 9, 8, 0, 5
      |9, 7, 8, 14, 10, 6, 7, 9, 5, 4, 6, 5, 6, 9, 9, 7, 7, 10, 12, 7, 5, 0
      |];

% Initial object distribution
S_init = [1, 0, 1, 0, 0, 0, 0, 0, 0, 2, 0, 0, 0, 0, 0, 0, 0, 0, 0, 1, 0, 0];

% Target nodes (1 if target, 0 otherwise)
T = [0, 0, 0, 0, 0, 0, 1, 0, 0, 0, 0, 0, 1, 0, 0, 0, 1, 0, 0, 0, 0, 1];

% Initial truck position (1-based indexing)
u = 7;

% --- DEBUG TRACE ---
% --- GENERATION TRACE (Backwards from Target) ---
% Initial distribution (all on targets): [0, 0, 0, 0, 0, 0, 1, 0, 0, 0, 0, 0, 1, 0, 0, 0, 1, 0, 0, 0, 0, 2]
% Step 1: Selected target node 7 (has 1 objects)
% Step 1: Moved object 7 -> 6
% Step 1: Distribution: [0, 0, 0, 0, 0, 1, 0, 0, 0, 0, 0, 0, 1, 0, 0, 0, 1, 0, 0, 0, 0, 2]
% Step 2: Selected target node 17 (has 1 objects)
% Step 2: Moved object 17 -> 3
% Step 2: Distribution: [0, 0, 1, 0, 0, 1, 0, 0, 0, 0, 0, 0, 1, 0, 0, 0, 0, 0, 0, 0, 0, 2]
% Step 3: Selected target node 22 (has 2 objects)
% Step 3: Moved object 22 -> 10
% Step 3: Distribution: [0, 0, 1, 0, 0, 1, 0, 0, 0, 1, 0, 0, 1, 0, 0, 0, 0, 0, 0, 0, 0, 1]
% Step 4: Selected target node 13 (has 1 objects)
% Step 4: Moved object 13 -> 10
% Step 4: Distribution: [0, 0, 1, 0, 0, 1, 0, 0, 0, 2, 0, 0, 0, 0, 0, 0, 0, 0, 0, 0, 0, 1]
% Step 5: Selected target node 22 (has 1 objects)
% Step 5: Moved object 22 -> 21
% Step 5: Distribution: [0, 0, 1, 0, 0, 1, 0, 0, 0, 2, 0, 0, 0, 0, 0, 0, 0, 0, 0, 0, 1, 0]
% Step 6: Selected non-target node 3 (has 1 objects)
% Step 6: Selected non-target node 6 (has 1 objects)
% Step 6: Avoiding backtrack to node 7
% Step 6: Moved object 6 -> 10
% Step 6: Distribution: [0, 0, 1, 0, 0, 0, 0, 0, 0, 3, 0, 0, 0, 0, 0, 0, 0, 0, 0, 0, 1, 0]
% Step 7: Selected non-target node 10 (has 3 objects)
% Step 7: Avoiding backtrack to node 6
% Step 7: Moved object 10 -> 11
% Step 7: Distribution: [0, 0, 1, 0, 0, 0, 0, 0, 0, 2, 1, 0, 0, 0, 0, 0, 0, 0, 0, 0, 1, 0]
% Step 8: Selected non-target node 3 (has 1 objects)
% Step 8: Selected non-target node 21 (has 1 objects)
% Step 8: Avoiding backtrack to node 22
% Step 8: Moved object 21 -> 14
% Step 8: Distribution: [0, 0, 1, 0, 0, 0, 0, 0, 0, 2, 1, 0, 0, 1, 0, 0, 0, 0, 0, 0, 0, 0]
% Step 9: Selected non-target node 11 (has 1 objects)
% Step 9: Moved object 11 -> 10
% Step 9: Distribution: [0, 0, 1, 0, 0, 0, 0, 0, 0, 3, 0, 0, 0, 1, 0, 0, 0, 0, 0, 0, 0, 0]
% Step 10: Selected non-target node 10 (has 3 objects)
% Step 10: Avoiding backtrack to node 11
% Step 10: Moved object 10 -> 2
% Step 10: Distribution: [0, 1, 1, 0, 0, 0, 0, 0, 0, 2, 0, 0, 0, 1, 0, 0, 0, 0, 0, 0, 0, 0]
% Step 11: Selected non-target node 2 (has 1 objects)
% Step 11: Moved object 2 -> 10
% Step 11: Distribution: [0, 0, 1, 0, 0, 0, 0, 0, 0, 3, 0, 0, 0, 1, 0, 0, 0, 0, 0, 0, 0, 0]
% Step 12: Selected non-target node 14 (has 1 objects)
% Step 12: Avoiding backtrack to node 21
% Step 12: Moved object 14 -> 19
% Step 12: Distribution: [0, 0, 1, 0, 0, 0, 0, 0, 0, 3, 0, 0, 0, 0, 0, 0, 0, 0, 1, 0, 0, 0]
% Step 13: Selected non-target node 10 (has 3 objects)
% Step 13: Avoiding backtrack to node 2
% Step 13: Moved object 10 -> 1
% Step 13: Distribution: [1, 0, 1, 0, 0, 0, 0, 0, 0, 2, 0, 0, 0, 0, 0, 0, 0, 0, 1, 0, 0, 0]
% Step 14: Selected non-target node 19 (has 1 objects)
% Step 14: Avoiding backtrack to node 14
% Step 14: Moved object 19 -> 20
% Step 14: Distribution: [1, 0, 1, 0, 0, 0, 0, 0, 0, 2, 0, 0, 0, 0, 0, 0, 0, 0, 0, 1, 0, 0]
% Truck starting position: 7
