% instance_n10_c3_k17_i19.dzn
% Generated instance for the Trucks problem
% N=10, h=3, k=17

% Number of nodes
N = 10;

% Number of objects
h = 3;

% Maximum plan length
%k = 17;

% Adjacency matrix (0-based internal, will be converted to 1-based)
Adj = [|0, 0, 1, 1, 0, 0, 0, 1, 0, 0
      |0, 0, 0, 0, 0, 1, 1, 0, 0, 0
      |1, 0, 0, 0, 0, 1, 0, 0, 1, 0
      |1, 0, 0, 0, 0, 0, 0, 1, 0, 0
      |0, 0, 0, 0, 0, 0, 0, 1, 0, 0
      |0, 1, 1, 0, 0, 0, 1, 0, 0, 0
      |0, 1, 0, 0, 0, 1, 0, 1, 0, 0
      |1, 0, 0, 1, 1, 0, 1, 0, 1, 1
      |0, 0, 1, 0, 0, 0, 0, 1, 0, 0
      |0, 0, 0, 0, 0, 0, 0, 1, 0, 0
      |];

% Weights matrix (edge weights)
% Weights = [|0, 0, 5, 4, 0, 0, 0, 3, 0, 0
%           |0, 0, 0, 0, 0, 3, 3, 0, 0, 0
%           |5, 0, 0, 0, 0, 3, 0, 0, 1, 0
%           |4, 0, 0, 0, 0, 0, 0, 2, 0, 0
%           |0, 0, 0, 0, 0, 0, 0, 2, 0, 0
%           |0, 3, 3, 0, 0, 0, 3, 0, 0, 0
%           |0, 3, 0, 0, 0, 3, 0, 4, 0, 0
%           |3, 0, 0, 2, 2, 0, 4, 0, 2, 4
%           |0, 0, 1, 0, 0, 0, 0, 2, 0, 0
%           |0, 0, 0, 0, 0, 0, 0, 4, 0, 0
%           |];

% Distance matrix
Dist = [|0, 10, 5, 4, 5, 8, 7, 3, 5, 7
      |10, 0, 6, 9, 9, 3, 3, 7, 7, 11
      |5, 6, 0, 5, 5, 3, 6, 3, 1, 7
      |4, 9, 5, 0, 4, 8, 6, 2, 4, 6
      |5, 9, 5, 4, 0, 8, 6, 2, 4, 6
      |8, 3, 3, 8, 8, 0, 3, 6, 4, 10
      |7, 3, 6, 6, 6, 3, 0, 4, 6, 8
      |3, 7, 3, 2, 2, 6, 4, 0, 2, 4
      |5, 7, 1, 4, 4, 4, 6, 2, 0, 6
      |7, 11, 7, 6, 6, 10, 8, 4, 6, 0
      |];

% Initial object distribution
S_init = [0, 0, 0, 0, 0, 2, 0, 1, 0, 0];

% Target nodes (1 if target, 0 otherwise)
T = [1, 0, 1, 0, 0, 0, 0, 0, 1, 0];

% Initial truck position (1-based indexing)
u = 3;

% --- DEBUG TRACE ---
% --- GENERATION TRACE (Backwards from Target) ---
% Initial distribution (all on targets): [1, 0, 1, 0, 0, 0, 0, 0, 1, 0]
% Step 1: Selected target node 1 (has 1 objects)
% Step 1: Moved object 1 -> 8
% Step 1: Distribution: [0, 0, 1, 0, 0, 0, 0, 1, 1, 0]
% Step 2: Selected target node 3 (has 1 objects)
% Step 2: Moved object 3 -> 6
% Step 2: Distribution: [0, 0, 0, 0, 0, 1, 0, 1, 1, 0]
% Step 3: Selected target node 9 (has 1 objects)
% Step 3: Moved object 9 -> 8
% Step 3: Distribution: [0, 0, 0, 0, 0, 1, 0, 2, 0, 0]
% Step 4: Selected non-target node 8 (has 2 objects)
% Step 4: Avoiding backtrack to node 9
% Step 4: Moved object 8 -> 7
% Step 4: Distribution: [0, 0, 0, 0, 0, 1, 1, 1, 0, 0]
% Step 5: Selected non-target node 8 (has 1 objects)
% Step 5: Avoiding backtrack to node 9
% Step 5: Moved object 8 -> 4
% Step 5: Distribution: [0, 0, 0, 1, 0, 1, 1, 0, 0, 0]
% Step 6: Selected non-target node 6 (has 1 objects)
% Step 6: Avoiding backtrack to node 3
% Step 6: Moved object 6 -> 2
% Step 6: Distribution: [0, 1, 0, 1, 0, 0, 1, 0, 0, 0]
% Step 7: Selected non-target node 4 (has 1 objects)
% Step 7: Moved object 4 -> 8
% Step 7: Distribution: [0, 1, 0, 0, 0, 0, 1, 1, 0, 0]
% Step 8: Selected non-target node 8 (has 1 objects)
% Step 8: Avoiding backtrack to node 4
% Step 8: Moved object 8 -> 10
% Step 8: Distribution: [0, 1, 0, 0, 0, 0, 1, 0, 0, 1]
% Step 9: Selected non-target node 7 (has 1 objects)
% Step 9: Avoiding backtrack to node 8
% Step 9: Moved object 7 -> 2
% Step 9: Distribution: [0, 2, 0, 0, 0, 0, 0, 0, 0, 1]
% Step 10: Selected non-target node 10 (has 1 objects)
% Step 10: Moved object 10 -> 8
% Step 10: Distribution: [0, 2, 0, 0, 0, 0, 0, 1, 0, 0]
% Step 11: Selected non-target node 8 (has 1 objects)
% Step 11: Avoiding backtrack to node 10
% Step 11: Moved object 8 -> 7
% Step 11: Distribution: [0, 2, 0, 0, 0, 0, 1, 0, 0, 0]
% Step 12: Selected non-target node 2 (has 2 objects)
% Step 12: Avoiding backtrack to node 7
% Step 12: Moved object 2 -> 6
% Step 12: Distribution: [0, 1, 0, 0, 0, 1, 1, 0, 0, 0]
% Step 13: Selected non-target node 2 (has 1 objects)
% Step 13: Avoiding backtrack to node 7
% Step 13: Moved object 2 -> 6
% Step 13: Distribution: [0, 0, 0, 0, 0, 2, 1, 0, 0, 0]
% Step 14: Selected non-target node 7 (has 1 objects)
% Step 14: Avoiding backtrack to node 8
% Step 14: Moved object 7 -> 2
% Step 14: Distribution: [0, 1, 0, 0, 0, 2, 0, 0, 0, 0]
% Step 15: Selected non-target node 2 (has 1 objects)
% Step 15: Avoiding backtrack to node 7
% Step 15: Moved object 2 -> 6
% Step 15: Distribution: [0, 0, 0, 0, 0, 3, 0, 0, 0, 0]
% Step 16: Selected non-target node 6 (has 3 objects)
% Step 16: Avoiding backtrack to node 2
% Step 16: Moved object 6 -> 7
% Step 16: Distribution: [0, 0, 0, 0, 0, 2, 1, 0, 0, 0]
% Step 17: Selected non-target node 7 (has 1 objects)
% Step 17: Avoiding backtrack to node 6
% Step 17: Moved object 7 -> 8
% Step 17: Distribution: [0, 0, 0, 0, 0, 2, 0, 1, 0, 0]
% Truck starting position: 3
