% instance_n22_c1_k17_i69.dzn
% Generated instance for the Trucks problem
% N=22, h=5, k=17

% Number of nodes
N = 22;

% Number of objects
h = 5;

% Maximum plan length
%k = 17;

% Adjacency matrix (0-based internal, will be converted to 1-based)
Adj = [|0, 1, 0, 0, 0, 1, 0, 0, 0, 0, 0, 0, 1, 0, 0, 0, 1, 0, 1, 0, 0, 0
      |1, 0, 1, 0, 0, 0, 0, 0, 0, 1, 0, 1, 1, 0, 0, 0, 0, 0, 0, 1, 0, 0
      |0, 1, 0, 0, 1, 0, 0, 0, 0, 0, 0, 0, 1, 0, 0, 0, 0, 0, 0, 0, 0, 0
      |0, 0, 0, 0, 0, 0, 0, 0, 0, 0, 0, 0, 0, 0, 1, 1, 1, 0, 0, 0, 0, 0
      |0, 0, 1, 0, 0, 0, 0, 0, 0, 0, 0, 0, 0, 0, 0, 0, 0, 0, 0, 0, 0, 0
      |1, 0, 0, 0, 0, 0, 0, 0, 0, 0, 0, 0, 0, 0, 0, 0, 0, 0, 0, 0, 0, 0
      |0, 0, 0, 0, 0, 0, 0, 0, 0, 1, 0, 0, 1, 0, 0, 0, 0, 0, 0, 0, 0, 0
      |0, 0, 0, 0, 0, 0, 0, 0, 0, 0, 0, 0, 0, 0, 0, 0, 0, 0, 0, 1, 0, 0
      |0, 0, 0, 0, 0, 0, 0, 0, 0, 0, 0, 0, 0, 1, 0, 0, 0, 0, 1, 0, 0, 0
      |0, 1, 0, 0, 0, 0, 1, 0, 0, 0, 0, 0, 0, 0, 0, 0, 0, 0, 0, 0, 0, 0
      |0, 0, 0, 0, 0, 0, 0, 0, 0, 0, 0, 0, 1, 0, 1, 0, 0, 0, 0, 0, 0, 0
      |0, 1, 0, 0, 0, 0, 0, 0, 0, 0, 0, 0, 0, 1, 0, 0, 0, 0, 0, 0, 0, 0
      |1, 1, 1, 0, 0, 0, 1, 0, 0, 0, 1, 0, 0, 0, 0, 0, 0, 0, 0, 0, 0, 0
      |0, 0, 0, 0, 0, 0, 0, 0, 1, 0, 0, 1, 0, 0, 0, 0, 0, 0, 0, 0, 0, 0
      |0, 0, 0, 1, 0, 0, 0, 0, 0, 0, 1, 0, 0, 0, 0, 0, 0, 0, 0, 0, 1, 0
      |0, 0, 0, 1, 0, 0, 0, 0, 0, 0, 0, 0, 0, 0, 0, 0, 0, 0, 0, 0, 0, 0
      |1, 0, 0, 1, 0, 0, 0, 0, 0, 0, 0, 0, 0, 0, 0, 0, 0, 0, 0, 0, 0, 0
      |0, 0, 0, 0, 0, 0, 0, 0, 0, 0, 0, 0, 0, 0, 0, 0, 0, 0, 1, 0, 0, 0
      |1, 0, 0, 0, 0, 0, 0, 0, 1, 0, 0, 0, 0, 0, 0, 0, 0, 1, 0, 0, 0, 1
      |0, 1, 0, 0, 0, 0, 0, 1, 0, 0, 0, 0, 0, 0, 0, 0, 0, 0, 0, 0, 1, 0
      |0, 0, 0, 0, 0, 0, 0, 0, 0, 0, 0, 0, 0, 0, 1, 0, 0, 0, 0, 1, 0, 1
      |0, 0, 0, 0, 0, 0, 0, 0, 0, 0, 0, 0, 0, 0, 0, 0, 0, 0, 1, 0, 1, 0
      |];

% Weights matrix (edge weights)
% Weights = [|0, 1, 0, 0, 0, 4, 0, 0, 0, 0, 0, 0, 2, 0, 0, 0, 2, 0, 4, 0, 0, 0
%           |1, 0, 3, 0, 0, 0, 0, 0, 0, 5, 0, 5, 1, 0, 0, 0, 0, 0, 0, 1, 0, 0
%           |0, 3, 0, 0, 3, 0, 0, 0, 0, 0, 0, 0, 1, 0, 0, 0, 0, 0, 0, 0, 0, 0
%           |0, 0, 0, 0, 0, 0, 0, 0, 0, 0, 0, 0, 0, 0, 5, 3, 2, 0, 0, 0, 0, 0
%           |0, 0, 3, 0, 0, 0, 0, 0, 0, 0, 0, 0, 0, 0, 0, 0, 0, 0, 0, 0, 0, 0
%           |4, 0, 0, 0, 0, 0, 0, 0, 0, 0, 0, 0, 0, 0, 0, 0, 0, 0, 0, 0, 0, 0
%           |0, 0, 0, 0, 0, 0, 0, 0, 0, 5, 0, 0, 4, 0, 0, 0, 0, 0, 0, 0, 0, 0
%           |0, 0, 0, 0, 0, 0, 0, 0, 0, 0, 0, 0, 0, 0, 0, 0, 0, 0, 0, 2, 0, 0
%           |0, 0, 0, 0, 0, 0, 0, 0, 0, 0, 0, 0, 0, 2, 0, 0, 0, 0, 4, 0, 0, 0
%           |0, 5, 0, 0, 0, 0, 5, 0, 0, 0, 0, 0, 0, 0, 0, 0, 0, 0, 0, 0, 0, 0
%           |0, 0, 0, 0, 0, 0, 0, 0, 0, 0, 0, 0, 2, 0, 5, 0, 0, 0, 0, 0, 0, 0
%           |0, 5, 0, 0, 0, 0, 0, 0, 0, 0, 0, 0, 0, 5, 0, 0, 0, 0, 0, 0, 0, 0
%           |2, 1, 1, 0, 0, 0, 4, 0, 0, 0, 2, 0, 0, 0, 0, 0, 0, 0, 0, 0, 0, 0
%           |0, 0, 0, 0, 0, 0, 0, 0, 2, 0, 0, 5, 0, 0, 0, 0, 0, 0, 0, 0, 0, 0
%           |0, 0, 0, 5, 0, 0, 0, 0, 0, 0, 5, 0, 0, 0, 0, 0, 0, 0, 0, 0, 5, 0
%           |0, 0, 0, 3, 0, 0, 0, 0, 0, 0, 0, 0, 0, 0, 0, 0, 0, 0, 0, 0, 0, 0
%           |2, 0, 0, 2, 0, 0, 0, 0, 0, 0, 0, 0, 0, 0, 0, 0, 0, 0, 0, 0, 0, 0
%           |0, 0, 0, 0, 0, 0, 0, 0, 0, 0, 0, 0, 0, 0, 0, 0, 0, 0, 4, 0, 0, 0
%           |4, 0, 0, 0, 0, 0, 0, 0, 4, 0, 0, 0, 0, 0, 0, 0, 0, 4, 0, 0, 0, 5
%           |0, 1, 0, 0, 0, 0, 0, 2, 0, 0, 0, 0, 0, 0, 0, 0, 0, 0, 0, 0, 4, 0
%           |0, 0, 0, 0, 0, 0, 0, 0, 0, 0, 0, 0, 0, 0, 5, 0, 0, 0, 0, 4, 0, 2
%           |0, 0, 0, 0, 0, 0, 0, 0, 0, 0, 0, 0, 0, 0, 0, 0, 0, 0, 5, 0, 2, 0
%           |];

% Distance matrix
Dist = [|0, 1, 3, 4, 6, 4, 6, 4, 8, 6, 4, 6, 2, 10, 9, 7, 2, 8, 4, 2, 6, 8
      |1, 0, 2, 5, 5, 5, 5, 3, 9, 5, 3, 5, 1, 10, 8, 8, 3, 9, 5, 1, 5, 7
      |3, 2, 0, 7, 3, 7, 5, 5, 11, 7, 3, 7, 1, 12, 8, 10, 5, 11, 7, 3, 7, 9
      |4, 5, 7, 0, 10, 8, 10, 8, 12, 10, 8, 10, 6, 14, 5, 3, 2, 12, 8, 6, 10, 12
      |6, 5, 3, 10, 0, 10, 8, 8, 14, 10, 6, 10, 4, 15, 11, 13, 8, 14, 10, 6, 10, 12
      |4, 5, 7, 8, 10, 0, 10, 8, 12, 10, 8, 10, 6, 14, 13, 11, 6, 12, 8, 6, 10, 12
      |6, 5, 5, 10, 8, 10, 0, 8, 14, 5, 6, 10, 4, 15, 11, 13, 8, 14, 10, 6, 10, 12
      |4, 3, 5, 8, 8, 8, 8, 0, 12, 8, 6, 8, 4, 13, 11, 11, 6, 12, 8, 2, 6, 8
      |8, 9, 11, 12, 14, 12, 14, 12, 0, 14, 12, 7, 10, 2, 16, 15, 10, 8, 4, 10, 11, 9
      |6, 5, 7, 10, 10, 10, 5, 8, 14, 0, 8, 10, 6, 15, 13, 13, 8, 14, 10, 6, 10, 12
      |4, 3, 3, 8, 6, 8, 6, 6, 12, 8, 0, 8, 2, 13, 5, 11, 6, 12, 8, 4, 8, 10
      |6, 5, 7, 10, 10, 10, 10, 8, 7, 10, 8, 0, 6, 5, 13, 13, 8, 14, 10, 6, 10, 12
      |2, 1, 1, 6, 4, 6, 4, 4, 10, 6, 2, 6, 0, 11, 7, 9, 4, 10, 6, 2, 6, 8
      |10, 10, 12, 14, 15, 14, 15, 13, 2, 15, 13, 5, 11, 0, 18, 17, 12, 10, 6, 11, 13, 11
      |9, 8, 8, 5, 11, 13, 11, 11, 16, 13, 5, 13, 7, 18, 0, 8, 7, 16, 12, 9, 5, 7
      |7, 8, 10, 3, 13, 11, 13, 11, 15, 13, 11, 13, 9, 17, 8, 0, 5, 15, 11, 9, 13, 15
      |2, 3, 5, 2, 8, 6, 8, 6, 10, 8, 6, 8, 4, 12, 7, 5, 0, 10, 6, 4, 8, 10
      |8, 9, 11, 12, 14, 12, 14, 12, 8, 14, 12, 14, 10, 10, 16, 15, 10, 0, 4, 10, 11, 9
      |4, 5, 7, 8, 10, 8, 10, 8, 4, 10, 8, 10, 6, 6, 12, 11, 6, 4, 0, 6, 7, 5
      |2, 1, 3, 6, 6, 6, 6, 2, 10, 6, 4, 6, 2, 11, 9, 9, 4, 10, 6, 0, 4, 6
      |6, 5, 7, 10, 10, 10, 10, 6, 11, 10, 8, 10, 6, 13, 5, 13, 8, 11, 7, 4, 0, 2
      |8, 7, 9, 12, 12, 12, 12, 8, 9, 12, 10, 12, 8, 11, 7, 15, 10, 9, 5, 6, 2, 0
      |];

% Initial object distribution
S_init = [2, 0, 0, 0, 0, 0, 1, 0, 0, 0, 0, 0, 1, 0, 0, 0, 0, 0, 1, 0, 0, 0];

% Target nodes (1 if target, 0 otherwise)
T = [0, 1, 0, 0, 1, 0, 0, 0, 0, 1, 0, 0, 0, 0, 0, 0, 0, 0, 0, 0, 0, 0];

% Initial truck position (1-based indexing)
u = 2;

% --- DEBUG TRACE ---
% --- GENERATION TRACE (Backwards from Target) ---
% Initial distribution (all on targets): [0, 2, 0, 0, 1, 0, 0, 0, 0, 2, 0, 0, 0, 0, 0, 0, 0, 0, 0, 0, 0, 0]
% Step 1: Selected target node 10 (has 2 objects)
% Step 1: Moved object 10 -> 7
% Step 1: Distribution: [0, 2, 0, 0, 1, 0, 1, 0, 0, 1, 0, 0, 0, 0, 0, 0, 0, 0, 0, 0, 0, 0]
% Step 2: Selected target node 10 (has 1 objects)
% Step 2: Moved object 10 -> 7
% Step 2: Distribution: [0, 2, 0, 0, 1, 0, 2, 0, 0, 0, 0, 0, 0, 0, 0, 0, 0, 0, 0, 0, 0, 0]
% Step 3: Selected target node 5 (has 1 objects)
% Step 3: Moved object 5 -> 3
% Step 3: Distribution: [0, 2, 1, 0, 0, 0, 2, 0, 0, 0, 0, 0, 0, 0, 0, 0, 0, 0, 0, 0, 0, 0]
% Step 4: Selected target node 2 (has 2 objects)
% Step 4: Moved object 2 -> 3
% Step 4: Distribution: [0, 1, 2, 0, 0, 0, 2, 0, 0, 0, 0, 0, 0, 0, 0, 0, 0, 0, 0, 0, 0, 0]
% Step 5: Selected target node 2 (has 1 objects)
% Step 5: Moved object 2 -> 1
% Step 5: Distribution: [1, 0, 2, 0, 0, 0, 2, 0, 0, 0, 0, 0, 0, 0, 0, 0, 0, 0, 0, 0, 0, 0]
% Step 6: Selected non-target node 3 (has 2 objects)
% Step 6: Avoiding backtrack to node 2
% Step 6: Moved object 3 -> 13
% Step 6: Distribution: [1, 0, 1, 0, 0, 0, 2, 0, 0, 0, 0, 0, 1, 0, 0, 0, 0, 0, 0, 0, 0, 0]
% Step 7: Selected non-target node 13 (has 1 objects)
% Step 7: Avoiding backtrack to node 3
% Step 7: Moved object 13 -> 7
% Step 7: Distribution: [1, 0, 1, 0, 0, 0, 3, 0, 0, 0, 0, 0, 0, 0, 0, 0, 0, 0, 0, 0, 0, 0]
% Step 8: Selected non-target node 7 (has 3 objects)
% Step 8: Moved object 7 -> 13
% Step 8: Distribution: [1, 0, 1, 0, 0, 0, 2, 0, 0, 0, 0, 0, 1, 0, 0, 0, 0, 0, 0, 0, 0, 0]
% Step 9: Selected non-target node 13 (has 1 objects)
% Step 9: Avoiding backtrack to node 7
% Step 9: Moved object 13 -> 3
% Step 9: Distribution: [1, 0, 2, 0, 0, 0, 2, 0, 0, 0, 0, 0, 0, 0, 0, 0, 0, 0, 0, 0, 0, 0]
% Step 10: Selected non-target node 3 (has 2 objects)
% Step 10: Moved object 3 -> 13
% Step 10: Distribution: [1, 0, 1, 0, 0, 0, 2, 0, 0, 0, 0, 0, 1, 0, 0, 0, 0, 0, 0, 0, 0, 0]
% Step 11: Selected non-target node 7 (has 2 objects)
% Step 11: Moved object 7 -> 13
% Step 11: Distribution: [1, 0, 1, 0, 0, 0, 1, 0, 0, 0, 0, 0, 2, 0, 0, 0, 0, 0, 0, 0, 0, 0]
% Step 12: Selected non-target node 13 (has 2 objects)
% Step 12: Avoiding backtrack to node 7
% Step 12: Moved object 13 -> 1
% Step 12: Distribution: [2, 0, 1, 0, 0, 0, 1, 0, 0, 0, 0, 0, 1, 0, 0, 0, 0, 0, 0, 0, 0, 0]
% Step 13: Selected non-target node 7 (has 1 objects)
% Step 13: Moved object 7 -> 13
% Step 13: Distribution: [2, 0, 1, 0, 0, 0, 0, 0, 0, 0, 0, 0, 2, 0, 0, 0, 0, 0, 0, 0, 0, 0]
% Step 14: Selected non-target node 3 (has 1 objects)
% Step 14: Moved object 3 -> 13
% Step 14: Distribution: [2, 0, 0, 0, 0, 0, 0, 0, 0, 0, 0, 0, 3, 0, 0, 0, 0, 0, 0, 0, 0, 0]
% Step 15: Selected non-target node 13 (has 3 objects)
% Step 15: Avoiding backtrack to node 3
% Step 15: Moved object 13 -> 7
% Step 15: Distribution: [2, 0, 0, 0, 0, 0, 1, 0, 0, 0, 0, 0, 2, 0, 0, 0, 0, 0, 0, 0, 0, 0]
% Step 16: Selected non-target node 13 (has 2 objects)
% Step 16: Avoiding backtrack to node 3
% Step 16: Moved object 13 -> 1
% Step 16: Distribution: [3, 0, 0, 0, 0, 0, 1, 0, 0, 0, 0, 0, 1, 0, 0, 0, 0, 0, 0, 0, 0, 0]
% Step 17: Selected non-target node 1 (has 3 objects)
% Step 17: Avoiding backtrack to node 13
% Step 17: Moved object 1 -> 19
% Step 17: Distribution: [2, 0, 0, 0, 0, 0, 1, 0, 0, 0, 0, 0, 1, 0, 0, 0, 0, 0, 1, 0, 0, 0]
% Truck starting position: 2
