% instance_n14_c3_k11_i37.dzn
% Generated instance for the Trucks problem
% N=14, h=3, k=11

% Number of nodes
N = 14;

% Number of objects
h = 3;

% Maximum plan length
%k = 11;

% Adjacency matrix (0-based internal, will be converted to 1-based)
Adj = [|0, 0, 0, 0, 1, 0, 0, 0, 0, 1, 0, 0, 0, 0
      |0, 0, 1, 0, 0, 0, 1, 0, 0, 0, 0, 1, 0, 0
      |0, 1, 0, 1, 0, 0, 0, 0, 0, 0, 0, 0, 0, 0
      |0, 0, 1, 0, 0, 0, 0, 0, 1, 0, 0, 0, 0, 0
      |1, 0, 0, 0, 0, 0, 0, 0, 1, 0, 1, 0, 0, 0
      |0, 0, 0, 0, 0, 0, 0, 1, 0, 1, 0, 0, 0, 0
      |0, 1, 0, 0, 0, 0, 0, 0, 0, 0, 0, 1, 0, 0
      |0, 0, 0, 0, 0, 1, 0, 0, 0, 0, 0, 0, 0, 1
      |0, 0, 0, 1, 1, 0, 0, 0, 0, 0, 0, 0, 0, 0
      |1, 0, 0, 0, 0, 1, 0, 0, 0, 0, 0, 1, 1, 1
      |0, 0, 0, 0, 1, 0, 0, 0, 0, 0, 0, 0, 0, 0
      |0, 1, 0, 0, 0, 0, 1, 0, 0, 1, 0, 0, 0, 0
      |0, 0, 0, 0, 0, 0, 0, 0, 0, 1, 0, 0, 0, 0
      |0, 0, 0, 0, 0, 0, 0, 1, 0, 1, 0, 0, 0, 0
      |];

% Weights matrix (edge weights)
% Weights = [|0, 0, 0, 0, 1, 0, 0, 0, 0, 5, 0, 0, 0, 0
%           |0, 0, 5, 0, 0, 0, 3, 0, 0, 0, 0, 3, 0, 0
%           |0, 5, 0, 5, 0, 0, 0, 0, 0, 0, 0, 0, 0, 0
%           |0, 0, 5, 0, 0, 0, 0, 0, 5, 0, 0, 0, 0, 0
%           |1, 0, 0, 0, 0, 0, 0, 0, 3, 0, 1, 0, 0, 0
%           |0, 0, 0, 0, 0, 0, 0, 2, 0, 5, 0, 0, 0, 0
%           |0, 3, 0, 0, 0, 0, 0, 0, 0, 0, 0, 1, 0, 0
%           |0, 0, 0, 0, 0, 2, 0, 0, 0, 0, 0, 0, 0, 2
%           |0, 0, 0, 5, 3, 0, 0, 0, 0, 0, 0, 0, 0, 0
%           |5, 0, 0, 0, 0, 5, 0, 0, 0, 0, 0, 5, 5, 4
%           |0, 0, 0, 0, 1, 0, 0, 0, 0, 0, 0, 0, 0, 0
%           |0, 3, 0, 0, 0, 0, 1, 0, 0, 5, 0, 0, 0, 0
%           |0, 0, 0, 0, 0, 0, 0, 0, 0, 5, 0, 0, 0, 0
%           |0, 0, 0, 0, 0, 0, 0, 2, 0, 4, 0, 0, 0, 0
%           |];

% Distance matrix
Dist = [|0, 13, 14, 9, 1, 10, 11, 11, 4, 5, 2, 10, 10, 9
      |13, 0, 5, 10, 14, 13, 3, 14, 15, 8, 15, 3, 13, 12
      |14, 5, 0, 5, 13, 18, 8, 19, 10, 13, 14, 8, 18, 17
      |9, 10, 5, 0, 8, 19, 13, 20, 5, 14, 9, 13, 19, 18
      |1, 14, 13, 8, 0, 11, 12, 12, 3, 6, 1, 11, 11, 10
      |10, 13, 18, 19, 11, 0, 11, 2, 14, 5, 12, 10, 10, 4
      |11, 3, 8, 13, 12, 11, 0, 12, 15, 6, 13, 1, 11, 10
      |11, 14, 19, 20, 12, 2, 12, 0, 15, 6, 13, 11, 11, 2
      |4, 15, 10, 5, 3, 14, 15, 15, 0, 9, 4, 14, 14, 13
      |5, 8, 13, 14, 6, 5, 6, 6, 9, 0, 7, 5, 5, 4
      |2, 15, 14, 9, 1, 12, 13, 13, 4, 7, 0, 12, 12, 11
      |10, 3, 8, 13, 11, 10, 1, 11, 14, 5, 12, 0, 10, 9
      |10, 13, 18, 19, 11, 10, 11, 11, 14, 5, 12, 10, 0, 9
      |9, 12, 17, 18, 10, 4, 10, 2, 13, 4, 11, 9, 9, 0
      |];

% Initial object distribution
S_init = [0, 0, 0, 0, 0, 0, 1, 1, 0, 0, 0, 0, 1, 0];

% Target nodes (1 if target, 0 otherwise)
T = [0, 0, 0, 1, 0, 1, 0, 0, 0, 1, 0, 0, 0, 0];

% Initial truck position (1-based indexing)
u = 12;

% --- DEBUG TRACE ---
% --- GENERATION TRACE (Backwards from Target) ---
% Initial distribution (all on targets): [0, 0, 0, 1, 0, 1, 0, 0, 0, 1, 0, 0, 0, 0]
% Step 1: Selected target node 6 (has 1 objects)
% Step 1: Moved object 6 -> 8
% Step 1: Distribution: [0, 0, 0, 1, 0, 0, 0, 1, 0, 1, 0, 0, 0, 0]
% Step 2: Selected target node 4 (has 1 objects)
% Step 2: Moved object 4 -> 3
% Step 2: Distribution: [0, 0, 1, 0, 0, 0, 0, 1, 0, 1, 0, 0, 0, 0]
% Step 3: Selected target node 10 (has 1 objects)
% Step 3: Moved object 10 -> 13
% Step 3: Distribution: [0, 0, 1, 0, 0, 0, 0, 1, 0, 0, 0, 0, 1, 0]
% Step 4: Selected non-target node 3 (has 1 objects)
% Step 4: Avoiding backtrack to node 4
% Step 4: Moved object 3 -> 2
% Step 4: Distribution: [0, 1, 0, 0, 0, 0, 0, 1, 0, 0, 0, 0, 1, 0]
% Step 5: Selected non-target node 2 (has 1 objects)
% Step 5: Avoiding backtrack to node 3
% Step 5: Moved object 2 -> 12
% Step 5: Distribution: [0, 0, 0, 0, 0, 0, 0, 1, 0, 0, 0, 1, 1, 0]
% Step 6: Selected non-target node 12 (has 1 objects)
% Step 6: Avoiding backtrack to node 2
% Step 6: Moved object 12 -> 7
% Step 6: Distribution: [0, 0, 0, 0, 0, 0, 1, 1, 0, 0, 0, 0, 1, 0]
% Step 7: Selected non-target node 13 (has 1 objects)
% Step 7: Selected non-target node 8 (has 1 objects)
% Step 7: Avoiding backtrack to node 6
% Step 7: Moved object 8 -> 14
% Step 7: Distribution: [0, 0, 0, 0, 0, 0, 1, 0, 0, 0, 0, 0, 1, 1]
% Step 8: Selected non-target node 13 (has 1 objects)
% Step 8: Selected non-target node 7 (has 1 objects)
% Step 8: Avoiding backtrack to node 12
% Step 8: Moved object 7 -> 2
% Step 8: Distribution: [0, 1, 0, 0, 0, 0, 0, 0, 0, 0, 0, 0, 1, 1]
% Step 9: Selected non-target node 13 (has 1 objects)
% Step 9: Selected non-target node 14 (has 1 objects)
% Step 9: Moved object 14 -> 8
% Step 9: Distribution: [0, 1, 0, 0, 0, 0, 0, 1, 0, 0, 0, 0, 1, 0]
% Step 10: Selected non-target node 2 (has 1 objects)
% Step 10: Avoiding backtrack to node 7
% Step 10: Moved object 2 -> 12
% Step 10: Distribution: [0, 0, 0, 0, 0, 0, 0, 1, 0, 0, 0, 1, 1, 0]
% Step 11: Selected non-target node 12 (has 1 objects)
% Step 11: Avoiding backtrack to node 2
% Step 11: Moved object 12 -> 7
% Step 11: Distribution: [0, 0, 0, 0, 0, 0, 1, 1, 0, 0, 0, 0, 1, 0]
% Truck starting position: 12
