% instance_n22_c1_k11_i67.dzn
% Generated instance for the Trucks problem
% N=22, h=5, k=11

% Number of nodes
N = 22;

% Number of objects
h = 5;

% Maximum plan length
%k = 11;

% Adjacency matrix (0-based internal, will be converted to 1-based)
Adj = [|0, 0, 0, 0, 0, 0, 0, 0, 0, 0, 0, 0, 0, 0, 0, 0, 0, 0, 0, 0, 1, 0
      |0, 0, 0, 0, 0, 0, 0, 0, 0, 0, 0, 0, 0, 1, 0, 0, 0, 0, 0, 0, 0, 0
      |0, 0, 0, 0, 0, 0, 0, 1, 0, 0, 0, 0, 0, 0, 0, 0, 0, 0, 0, 0, 0, 1
      |0, 0, 0, 0, 0, 0, 0, 0, 0, 0, 0, 0, 0, 0, 1, 0, 1, 0, 0, 0, 0, 0
      |0, 0, 0, 0, 0, 1, 0, 0, 0, 0, 0, 0, 0, 0, 0, 0, 0, 0, 0, 0, 0, 0
      |0, 0, 0, 0, 1, 0, 1, 0, 0, 0, 0, 0, 1, 0, 0, 0, 0, 0, 0, 0, 0, 0
      |0, 0, 0, 0, 0, 1, 0, 0, 0, 0, 0, 0, 0, 1, 0, 0, 0, 0, 0, 0, 0, 1
      |0, 0, 1, 0, 0, 0, 0, 0, 0, 0, 0, 0, 0, 0, 0, 0, 0, 0, 0, 0, 1, 0
      |0, 0, 0, 0, 0, 0, 0, 0, 0, 0, 0, 1, 0, 1, 0, 0, 0, 1, 0, 0, 1, 0
      |0, 0, 0, 0, 0, 0, 0, 0, 0, 0, 0, 0, 1, 0, 0, 0, 0, 0, 0, 0, 1, 0
      |0, 0, 0, 0, 0, 0, 0, 0, 0, 0, 0, 0, 0, 0, 0, 0, 0, 0, 0, 0, 1, 0
      |0, 0, 0, 0, 0, 0, 0, 0, 1, 0, 0, 0, 0, 1, 0, 0, 0, 0, 1, 0, 1, 0
      |0, 0, 0, 0, 0, 1, 0, 0, 0, 1, 0, 0, 0, 0, 0, 0, 0, 0, 0, 0, 0, 0
      |0, 1, 0, 0, 0, 0, 1, 0, 1, 0, 0, 1, 0, 0, 0, 0, 0, 0, 0, 0, 1, 0
      |0, 0, 0, 1, 0, 0, 0, 0, 0, 0, 0, 0, 0, 0, 0, 0, 0, 0, 0, 0, 0, 0
      |0, 0, 0, 0, 0, 0, 0, 0, 0, 0, 0, 0, 0, 0, 0, 0, 1, 0, 1, 0, 0, 0
      |0, 0, 0, 1, 0, 0, 0, 0, 0, 0, 0, 0, 0, 0, 0, 1, 0, 0, 0, 1, 1, 0
      |0, 0, 0, 0, 0, 0, 0, 0, 1, 0, 0, 0, 0, 0, 0, 0, 0, 0, 0, 0, 0, 0
      |0, 0, 0, 0, 0, 0, 0, 0, 0, 0, 0, 1, 0, 0, 0, 1, 0, 0, 0, 0, 0, 0
      |0, 0, 0, 0, 0, 0, 0, 0, 0, 0, 0, 0, 0, 0, 0, 0, 1, 0, 0, 0, 0, 0
      |1, 0, 0, 0, 0, 0, 0, 1, 1, 1, 1, 1, 0, 1, 0, 0, 1, 0, 0, 0, 0, 0
      |0, 0, 1, 0, 0, 0, 1, 0, 0, 0, 0, 0, 0, 0, 0, 0, 0, 0, 0, 0, 0, 0
      |];

% Weights matrix (edge weights)
% Weights = [|0, 0, 0, 0, 0, 0, 0, 0, 0, 0, 0, 0, 0, 0, 0, 0, 0, 0, 0, 0, 2, 0
%           |0, 0, 0, 0, 0, 0, 0, 0, 0, 0, 0, 0, 0, 4, 0, 0, 0, 0, 0, 0, 0, 0
%           |0, 0, 0, 0, 0, 0, 0, 4, 0, 0, 0, 0, 0, 0, 0, 0, 0, 0, 0, 0, 0, 2
%           |0, 0, 0, 0, 0, 0, 0, 0, 0, 0, 0, 0, 0, 0, 2, 0, 4, 0, 0, 0, 0, 0
%           |0, 0, 0, 0, 0, 2, 0, 0, 0, 0, 0, 0, 0, 0, 0, 0, 0, 0, 0, 0, 0, 0
%           |0, 0, 0, 0, 2, 0, 2, 0, 0, 0, 0, 0, 5, 0, 0, 0, 0, 0, 0, 0, 0, 0
%           |0, 0, 0, 0, 0, 2, 0, 0, 0, 0, 0, 0, 0, 4, 0, 0, 0, 0, 0, 0, 0, 3
%           |0, 0, 4, 0, 0, 0, 0, 0, 0, 0, 0, 0, 0, 0, 0, 0, 0, 0, 0, 0, 4, 0
%           |0, 0, 0, 0, 0, 0, 0, 0, 0, 0, 0, 2, 0, 4, 0, 0, 0, 5, 0, 0, 3, 0
%           |0, 0, 0, 0, 0, 0, 0, 0, 0, 0, 0, 0, 2, 0, 0, 0, 0, 0, 0, 0, 3, 0
%           |0, 0, 0, 0, 0, 0, 0, 0, 0, 0, 0, 0, 0, 0, 0, 0, 0, 0, 0, 0, 2, 0
%           |0, 0, 0, 0, 0, 0, 0, 0, 2, 0, 0, 0, 0, 1, 0, 0, 0, 0, 3, 0, 2, 0
%           |0, 0, 0, 0, 0, 5, 0, 0, 0, 2, 0, 0, 0, 0, 0, 0, 0, 0, 0, 0, 0, 0
%           |0, 4, 0, 0, 0, 0, 4, 0, 4, 0, 0, 1, 0, 0, 0, 0, 0, 0, 0, 0, 5, 0
%           |0, 0, 0, 2, 0, 0, 0, 0, 0, 0, 0, 0, 0, 0, 0, 0, 0, 0, 0, 0, 0, 0
%           |0, 0, 0, 0, 0, 0, 0, 0, 0, 0, 0, 0, 0, 0, 0, 0, 1, 0, 2, 0, 0, 0
%           |0, 0, 0, 4, 0, 0, 0, 0, 0, 0, 0, 0, 0, 0, 0, 1, 0, 0, 0, 1, 4, 0
%           |0, 0, 0, 0, 0, 0, 0, 0, 5, 0, 0, 0, 0, 0, 0, 0, 0, 0, 0, 0, 0, 0
%           |0, 0, 0, 0, 0, 0, 0, 0, 0, 0, 0, 3, 0, 0, 0, 2, 0, 0, 0, 0, 0, 0
%           |0, 0, 0, 0, 0, 0, 0, 0, 0, 0, 0, 0, 0, 0, 0, 0, 1, 0, 0, 0, 0, 0
%           |2, 0, 0, 0, 0, 0, 0, 4, 3, 3, 2, 2, 0, 5, 0, 0, 4, 0, 0, 0, 0, 0
%           |0, 0, 2, 0, 0, 0, 3, 0, 0, 0, 0, 0, 0, 0, 0, 0, 0, 0, 0, 0, 0, 0
%           |];

% Distance matrix
Dist = [|0, 9, 10, 10, 13, 11, 9, 6, 5, 5, 4, 4, 7, 5, 12, 7, 6, 10, 7, 7, 2, 12
      |9, 0, 13, 15, 12, 10, 8, 11, 7, 10, 9, 5, 12, 4, 17, 10, 11, 12, 8, 12, 7, 11
      |10, 13, 0, 16, 9, 7, 5, 4, 11, 11, 10, 10, 12, 9, 18, 13, 12, 16, 13, 13, 8, 2
      |10, 15, 16, 0, 19, 17, 15, 12, 11, 11, 10, 10, 13, 11, 2, 5, 4, 16, 7, 5, 8, 18
      |13, 12, 9, 19, 0, 2, 4, 13, 11, 9, 13, 9, 7, 8, 21, 14, 15, 16, 12, 16, 11, 7
      |11, 10, 7, 17, 2, 0, 2, 11, 9, 7, 11, 7, 5, 6, 19, 12, 13, 14, 10, 14, 9, 5
      |9, 8, 5, 15, 4, 2, 0, 9, 7, 9, 9, 5, 7, 4, 17, 10, 11, 12, 8, 12, 7, 3
      |6, 11, 4, 12, 13, 11, 9, 0, 7, 7, 6, 6, 9, 7, 14, 9, 8, 12, 9, 9, 4, 6
      |5, 7, 11, 11, 11, 9, 7, 7, 0, 6, 5, 2, 8, 3, 13, 7, 7, 5, 5, 8, 3, 10
      |5, 10, 11, 11, 9, 7, 9, 7, 6, 0, 5, 5, 2, 6, 13, 8, 7, 11, 8, 8, 3, 12
      |4, 9, 10, 10, 13, 11, 9, 6, 5, 5, 0, 4, 7, 5, 12, 7, 6, 10, 7, 7, 2, 12
      |4, 5, 10, 10, 9, 7, 5, 6, 2, 5, 4, 0, 7, 1, 12, 5, 6, 7, 3, 7, 2, 8
      |7, 12, 12, 13, 7, 5, 7, 9, 8, 2, 7, 7, 0, 8, 15, 10, 9, 13, 10, 10, 5, 10
      |5, 4, 9, 11, 8, 6, 4, 7, 3, 6, 5, 1, 8, 0, 13, 6, 7, 8, 4, 8, 3, 7
      |12, 17, 18, 2, 21, 19, 17, 14, 13, 13, 12, 12, 15, 13, 0, 7, 6, 18, 9, 7, 10, 20
      |7, 10, 13, 5, 14, 12, 10, 9, 7, 8, 7, 5, 10, 6, 7, 0, 1, 12, 2, 2, 5, 13
      |6, 11, 12, 4, 15, 13, 11, 8, 7, 7, 6, 6, 9, 7, 6, 1, 0, 12, 3, 1, 4, 14
      |10, 12, 16, 16, 16, 14, 12, 12, 5, 11, 10, 7, 13, 8, 18, 12, 12, 0, 10, 13, 8, 15
      |7, 8, 13, 7, 12, 10, 8, 9, 5, 8, 7, 3, 10, 4, 9, 2, 3, 10, 0, 4, 5, 11
      |7, 12, 13, 5, 16, 14, 12, 9, 8, 8, 7, 7, 10, 8, 7, 2, 1, 13, 4, 0, 5, 15
      |2, 7, 8, 8, 11, 9, 7, 4, 3, 3, 2, 2, 5, 3, 10, 5, 4, 8, 5, 5, 0, 10
      |12, 11, 2, 18, 7, 5, 3, 6, 10, 12, 12, 8, 10, 7, 20, 13, 14, 15, 11, 15, 10, 0
      |];

% Initial object distribution
S_init = [0, 0, 0, 0, 0, 0, 2, 0, 0, 0, 0, 1, 0, 0, 0, 0, 0, 0, 1, 0, 1, 0];

% Target nodes (1 if target, 0 otherwise)
T = [0, 0, 0, 0, 1, 0, 0, 0, 1, 1, 1, 0, 1, 0, 0, 0, 0, 0, 0, 0, 0, 0];

% Initial truck position (1-based indexing)
u = 7;

% --- DEBUG TRACE ---
% --- GENERATION TRACE (Backwards from Target) ---
% Initial distribution (all on targets): [0, 0, 0, 0, 1, 0, 0, 0, 1, 1, 1, 0, 1, 0, 0, 0, 0, 0, 0, 0, 0, 0]
% Step 1: Selected target node 10 (has 1 objects)
% Step 1: Moved object 10 -> 21
% Step 1: Distribution: [0, 0, 0, 0, 1, 0, 0, 0, 1, 0, 1, 0, 1, 0, 0, 0, 0, 0, 0, 0, 1, 0]
% Step 2: Selected target node 13 (has 1 objects)
% Step 2: Moved object 13 -> 6
% Step 2: Distribution: [0, 0, 0, 0, 1, 1, 0, 0, 1, 0, 1, 0, 0, 0, 0, 0, 0, 0, 0, 0, 1, 0]
% Step 3: Selected target node 5 (has 1 objects)
% Step 3: Moved object 5 -> 6
% Step 3: Distribution: [0, 0, 0, 0, 0, 2, 0, 0, 1, 0, 1, 0, 0, 0, 0, 0, 0, 0, 0, 0, 1, 0]
% Step 4: Selected target node 9 (has 1 objects)
% Step 4: Moved object 9 -> 21
% Step 4: Distribution: [0, 0, 0, 0, 0, 2, 0, 0, 0, 0, 1, 0, 0, 0, 0, 0, 0, 0, 0, 0, 2, 0]
% Step 5: Selected target node 11 (has 1 objects)
% Step 5: Moved object 11 -> 21
% Step 5: Distribution: [0, 0, 0, 0, 0, 2, 0, 0, 0, 0, 0, 0, 0, 0, 0, 0, 0, 0, 0, 0, 3, 0]
% Step 6: Selected non-target node 21 (has 3 objects)
% Step 6: Avoiding backtrack to node 11
% Step 6: Moved object 21 -> 14
% Step 6: Distribution: [0, 0, 0, 0, 0, 2, 0, 0, 0, 0, 0, 0, 0, 1, 0, 0, 0, 0, 0, 0, 2, 0]
% Step 7: Selected non-target node 6 (has 2 objects)
% Step 7: Avoiding backtrack to node 5
% Step 7: Moved object 6 -> 7
% Step 7: Distribution: [0, 0, 0, 0, 0, 1, 1, 0, 0, 0, 0, 0, 0, 1, 0, 0, 0, 0, 0, 0, 2, 0]
% Step 8: Selected non-target node 21 (has 2 objects)
% Step 8: Avoiding backtrack to node 11
% Step 8: Moved object 21 -> 12
% Step 8: Distribution: [0, 0, 0, 0, 0, 1, 1, 0, 0, 0, 0, 1, 0, 1, 0, 0, 0, 0, 0, 0, 1, 0]
% Step 9: Selected non-target node 6 (has 1 objects)
% Step 9: Avoiding backtrack to node 5
% Step 9: Moved object 6 -> 7
% Step 9: Distribution: [0, 0, 0, 0, 0, 0, 2, 0, 0, 0, 0, 1, 0, 1, 0, 0, 0, 0, 0, 0, 1, 0]
% Step 10: Selected non-target node 12 (has 1 objects)
% Step 10: Avoiding backtrack to node 21
% Step 10: Moved object 12 -> 19
% Step 10: Distribution: [0, 0, 0, 0, 0, 0, 2, 0, 0, 0, 0, 0, 0, 1, 0, 0, 0, 0, 1, 0, 1, 0]
% Step 11: Selected non-target node 14 (has 1 objects)
% Step 11: Avoiding backtrack to node 21
% Step 11: Moved object 14 -> 12
% Step 11: Distribution: [0, 0, 0, 0, 0, 0, 2, 0, 0, 0, 0, 1, 0, 0, 0, 0, 0, 0, 1, 0, 1, 0]
% Truck starting position: 7
