% instance_n18_c2_k8_i51.dzn
% Generated instance for the Trucks problem
% N=18, h=4, k=8

% Number of nodes
N = 18;

% Number of objects
h = 4;

% Maximum plan length
%k = 8;

% Adjacency matrix (0-based internal, will be converted to 1-based)
Adj = [|0, 0, 1, 0, 1, 1, 0, 0, 0, 1, 1, 0, 0, 0, 1, 0, 0, 1
      |0, 0, 0, 0, 0, 0, 0, 0, 0, 1, 0, 0, 0, 0, 0, 0, 0, 0
      |1, 0, 0, 1, 1, 0, 0, 0, 0, 0, 0, 0, 0, 0, 1, 1, 0, 0
      |0, 0, 1, 0, 0, 1, 0, 1, 1, 0, 0, 0, 0, 0, 0, 0, 0, 0
      |1, 0, 1, 0, 0, 0, 0, 1, 0, 0, 0, 1, 0, 0, 0, 0, 1, 0
      |1, 0, 0, 1, 0, 0, 0, 0, 0, 0, 0, 0, 0, 0, 0, 0, 0, 0
      |0, 0, 0, 0, 0, 0, 0, 1, 0, 0, 0, 1, 0, 0, 0, 0, 0, 0
      |0, 0, 0, 1, 1, 0, 1, 0, 0, 0, 0, 0, 1, 0, 0, 0, 0, 0
      |0, 0, 0, 1, 0, 0, 0, 0, 0, 1, 0, 0, 0, 0, 0, 0, 0, 0
      |1, 1, 0, 0, 0, 0, 0, 0, 1, 0, 0, 0, 0, 1, 0, 0, 0, 0
      |1, 0, 0, 0, 0, 0, 0, 0, 0, 0, 0, 0, 0, 0, 0, 0, 0, 0
      |0, 0, 0, 0, 1, 0, 1, 0, 0, 0, 0, 0, 0, 0, 0, 0, 0, 1
      |0, 0, 0, 0, 0, 0, 0, 1, 0, 0, 0, 0, 0, 0, 0, 0, 0, 0
      |0, 0, 0, 0, 0, 0, 0, 0, 0, 1, 0, 0, 0, 0, 0, 0, 0, 0
      |1, 0, 1, 0, 0, 0, 0, 0, 0, 0, 0, 0, 0, 0, 0, 0, 0, 0
      |0, 0, 1, 0, 0, 0, 0, 0, 0, 0, 0, 0, 0, 0, 0, 0, 0, 0
      |0, 0, 0, 0, 1, 0, 0, 0, 0, 0, 0, 0, 0, 0, 0, 0, 0, 0
      |1, 0, 0, 0, 0, 0, 0, 0, 0, 0, 0, 1, 0, 0, 0, 0, 0, 0
      |];

% Initial object distribution
S_init = [0, 0, 0, 0, 0, 0, 0, 1, 0, 0, 0, 0, 0, 0, 0, 0, 1, 2];

% Target nodes (1 if target, 0 otherwise)
T = [1, 0, 0, 0, 0, 0, 0, 0, 0, 0, 0, 1, 0, 0, 1, 1, 0, 0];

% Initial truck position (1-based indexing)
u = 15;

% --- DEBUG TRACE ---
% --- GENERATION TRACE (Backwards from Target) ---
% Initial distribution (all on targets): [1, 0, 0, 0, 0, 0, 0, 0, 0, 0, 0, 1, 0, 0, 1, 1, 0, 0]
% Step 1: Selected target node 16 (has 1 objects)
% Step 1: Moved object 16 -> 3
% Step 1: Distribution: [1, 0, 1, 0, 0, 0, 0, 0, 0, 0, 0, 1, 0, 0, 1, 0, 0, 0]
% Step 2: Selected target node 1 (has 1 objects)
% Step 2: Moved object 1 -> 18
% Step 2: Distribution: [0, 0, 1, 0, 0, 0, 0, 0, 0, 0, 0, 1, 0, 0, 1, 0, 0, 1]
% Step 3: Selected target node 12 (has 1 objects)
% Step 3: Moved object 12 -> 18
% Step 3: Distribution: [0, 0, 1, 0, 0, 0, 0, 0, 0, 0, 0, 0, 0, 0, 1, 0, 0, 2]
% Step 4: Selected target node 15 (has 1 objects)
% Step 4: Moved object 15 -> 3
% Step 4: Distribution: [0, 0, 2, 0, 0, 0, 0, 0, 0, 0, 0, 0, 0, 0, 0, 0, 0, 2]
% Step 5: Selected non-target node 18 (has 2 objects)
% Step 5: Selected non-target node 3 (has 2 objects)
% Step 5: Avoiding backtrack to node 15
% Step 5: Moved object 3 -> 4
% Step 5: Distribution: [0, 0, 1, 1, 0, 0, 0, 0, 0, 0, 0, 0, 0, 0, 0, 0, 0, 2]
% Step 6: Selected non-target node 3 (has 1 objects)
% Step 6: Avoiding backtrack to node 15
% Step 6: Moved object 3 -> 5
% Step 6: Distribution: [0, 0, 0, 1, 1, 0, 0, 0, 0, 0, 0, 0, 0, 0, 0, 0, 0, 2]
% Step 7: Selected non-target node 18 (has 2 objects)
% Step 7: Selected non-target node 5 (has 1 objects)
% Step 7: Avoiding backtrack to node 3
% Step 7: Moved object 5 -> 17
% Step 7: Distribution: [0, 0, 0, 1, 0, 0, 0, 0, 0, 0, 0, 0, 0, 0, 0, 0, 1, 2]
% Step 8: Selected non-target node 18 (has 2 objects)
% Step 8: Selected non-target node 4 (has 1 objects)
% Step 8: Avoiding backtrack to node 3
% Step 8: Moved object 4 -> 8
% Step 8: Distribution: [0, 0, 0, 0, 0, 0, 0, 1, 0, 0, 0, 0, 0, 0, 0, 0, 1, 2]
% Truck starting position: 15
