% instance_n18_c2_k11_i52.dzn
% Generated instance for the Trucks problem
% N=18, h=4, k=11

% Number of nodes
N = 18;

% Number of objects
h = 4;

% Maximum plan length
%k = 11;

% Adjacency matrix (0-based internal, will be converted to 1-based)
Adj = [|0, 0, 1, 1, 1, 0, 0, 0, 0, 0, 0, 0, 1, 0, 0, 0, 1, 0
      |0, 0, 0, 0, 0, 0, 0, 0, 0, 0, 0, 0, 1, 0, 0, 0, 0, 0
      |1, 0, 0, 0, 0, 0, 1, 0, 0, 0, 0, 0, 1, 0, 0, 0, 0, 0
      |1, 0, 0, 0, 0, 1, 1, 0, 0, 0, 0, 0, 0, 0, 0, 1, 0, 1
      |1, 0, 0, 0, 0, 0, 0, 0, 0, 0, 0, 1, 0, 0, 0, 0, 0, 0
      |0, 0, 0, 1, 0, 0, 0, 1, 0, 0, 0, 1, 0, 0, 1, 0, 0, 0
      |0, 0, 1, 1, 0, 0, 0, 0, 0, 0, 0, 0, 0, 1, 1, 0, 0, 0
      |0, 0, 0, 0, 0, 1, 0, 0, 0, 0, 1, 0, 0, 0, 0, 0, 0, 1
      |0, 0, 0, 0, 0, 0, 0, 0, 0, 0, 0, 0, 1, 0, 0, 0, 0, 0
      |0, 0, 0, 0, 0, 0, 0, 0, 0, 0, 0, 0, 0, 1, 0, 0, 1, 0
      |0, 0, 0, 0, 0, 0, 0, 1, 0, 0, 0, 0, 0, 0, 0, 0, 0, 0
      |0, 0, 0, 0, 1, 1, 0, 0, 0, 0, 0, 0, 0, 0, 0, 0, 0, 0
      |1, 1, 1, 0, 0, 0, 0, 0, 1, 0, 0, 0, 0, 0, 0, 0, 0, 0
      |0, 0, 0, 0, 0, 0, 1, 0, 0, 1, 0, 0, 0, 0, 0, 0, 0, 0
      |0, 0, 0, 0, 0, 1, 1, 0, 0, 0, 0, 0, 0, 0, 0, 0, 0, 0
      |0, 0, 0, 1, 0, 0, 0, 0, 0, 0, 0, 0, 0, 0, 0, 0, 0, 0
      |1, 0, 0, 0, 0, 0, 0, 0, 0, 1, 0, 0, 0, 0, 0, 0, 0, 0
      |0, 0, 0, 1, 0, 0, 0, 1, 0, 0, 0, 0, 0, 0, 0, 0, 0, 0
      |];

% Initial object distribution
S_init = [2, 0, 0, 0, 0, 0, 0, 0, 0, 0, 1, 0, 0, 0, 0, 1, 0, 0];

% Target nodes (1 if target, 0 otherwise)
T = [0, 0, 1, 1, 0, 1, 1, 0, 0, 0, 0, 0, 0, 0, 0, 0, 0, 0];

% Initial truck position (1-based indexing)
u = 9;

% --- DEBUG TRACE ---
% --- GENERATION TRACE (Backwards from Target) ---
% Initial distribution (all on targets): [0, 0, 1, 1, 0, 1, 1, 0, 0, 0, 0, 0, 0, 0, 0, 0, 0, 0]
% Step 1: Selected target node 6 (has 1 objects)
% Step 1: Moved object 6 -> 8
% Step 1: Distribution: [0, 0, 1, 1, 0, 0, 1, 1, 0, 0, 0, 0, 0, 0, 0, 0, 0, 0]
% Step 2: Selected target node 3 (has 1 objects)
% Step 2: Moved object 3 -> 13
% Step 2: Distribution: [0, 0, 0, 1, 0, 0, 1, 1, 0, 0, 0, 0, 1, 0, 0, 0, 0, 0]
% Step 3: Selected target node 4 (has 1 objects)
% Step 3: Moved object 4 -> 16
% Step 3: Distribution: [0, 0, 0, 0, 0, 0, 1, 1, 0, 0, 0, 0, 1, 0, 0, 1, 0, 0]
% Step 4: Selected target node 7 (has 1 objects)
% Step 4: Moved object 7 -> 14
% Step 4: Distribution: [0, 0, 0, 0, 0, 0, 0, 1, 0, 0, 0, 0, 1, 1, 0, 1, 0, 0]
% Step 5: Selected non-target node 8 (has 1 objects)
% Step 5: Avoiding backtrack to node 6
% Step 5: Moved object 8 -> 18
% Step 5: Distribution: [0, 0, 0, 0, 0, 0, 0, 0, 0, 0, 0, 0, 1, 1, 0, 1, 0, 1]
% Step 6: Selected non-target node 13 (has 1 objects)
% Step 6: Avoiding backtrack to node 3
% Step 6: Moved object 13 -> 1
% Step 6: Distribution: [1, 0, 0, 0, 0, 0, 0, 0, 0, 0, 0, 0, 0, 1, 0, 1, 0, 1]
% Step 7: Selected non-target node 14 (has 1 objects)
% Step 7: Avoiding backtrack to node 7
% Step 7: Moved object 14 -> 10
% Step 7: Distribution: [1, 0, 0, 0, 0, 0, 0, 0, 0, 1, 0, 0, 0, 0, 0, 1, 0, 1]
% Step 8: Selected non-target node 10 (has 1 objects)
% Step 8: Avoiding backtrack to node 14
% Step 8: Moved object 10 -> 17
% Step 8: Distribution: [1, 0, 0, 0, 0, 0, 0, 0, 0, 0, 0, 0, 0, 0, 0, 1, 1, 1]
% Step 9: Selected non-target node 18 (has 1 objects)
% Step 9: Moved object 18 -> 8
% Step 9: Distribution: [1, 0, 0, 0, 0, 0, 0, 1, 0, 0, 0, 0, 0, 0, 0, 1, 1, 0]
% Step 10: Selected non-target node 17 (has 1 objects)
% Step 10: Avoiding backtrack to node 10
% Step 10: Moved object 17 -> 1
% Step 10: Distribution: [2, 0, 0, 0, 0, 0, 0, 1, 0, 0, 0, 0, 0, 0, 0, 1, 0, 0]
% Step 11: Selected non-target node 16 (has 1 objects)
% Step 11: Selected non-target node 8 (has 1 objects)
% Step 11: Avoiding backtrack to node 18
% Step 11: Moved object 8 -> 11
% Step 11: Distribution: [2, 0, 0, 0, 0, 0, 0, 0, 0, 0, 1, 0, 0, 0, 0, 1, 0, 0]
% Truck starting position: 9
