% instance_n10_c0_k17_i4.dzn
% Generated instance for the Trucks problem
% N=10, h=3, k=17

% Number of nodes
N = 10;

% Number of objects
h = 3;

% Maximum plan length
%k = 17;

% Adjacency matrix (0-based internal, will be converted to 1-based)
Adj = [|0, 1, 0, 0, 0, 0, 1, 1, 1, 0
      |1, 0, 0, 0, 0, 0, 0, 0, 0, 0
      |0, 0, 0, 0, 1, 0, 0, 0, 0, 0
      |0, 0, 0, 0, 0, 1, 0, 0, 0, 0
      |0, 0, 1, 0, 0, 0, 0, 1, 1, 0
      |0, 0, 0, 1, 0, 0, 1, 0, 1, 1
      |1, 0, 0, 0, 0, 1, 0, 0, 0, 0
      |1, 0, 0, 0, 1, 0, 0, 0, 0, 0
      |1, 0, 0, 0, 1, 1, 0, 0, 0, 0
      |0, 0, 0, 0, 0, 1, 0, 0, 0, 0
      |];

% Initial object distribution
S_init = [0, 0, 1, 0, 0, 1, 0, 1, 0, 0];

% Target nodes (1 if target, 0 otherwise)
T = [1, 0, 0, 0, 1, 0, 0, 0, 1, 0];

% Initial truck position (1-based indexing)
u = 10;

% --- DEBUG TRACE ---
% --- GENERATION TRACE (Backwards from Target) ---
% Initial distribution (all on targets): [1, 0, 0, 0, 1, 0, 0, 0, 1, 0]
% Step 1: Selected target node 5 (has 1 objects)
% Step 1: Moved object 5 -> 3
% Step 1: Distribution: [1, 0, 1, 0, 0, 0, 0, 0, 1, 0]
% Step 2: Selected target node 1 (has 1 objects)
% Step 2: Moved object 1 -> 8
% Step 2: Distribution: [0, 0, 1, 0, 0, 0, 0, 1, 1, 0]
% Step 3: Selected target node 9 (has 1 objects)
% Step 3: Moved object 9 -> 6
% Step 3: Distribution: [0, 0, 1, 0, 0, 1, 0, 1, 0, 0]
% Step 4: Selected non-target node 3 (has 1 objects)
% Step 4: Selected non-target node 6 (has 1 objects)
% Step 4: Avoiding backtrack to node 9
% Step 4: Moved object 6 -> 7
% Step 4: Distribution: [0, 0, 1, 0, 0, 0, 1, 1, 0, 0]
% Step 5: Selected non-target node 8 (has 1 objects)
% Step 5: Selected non-target node 7 (has 1 objects)
% Step 5: Moved object 7 -> 6
% Step 5: Distribution: [0, 0, 1, 0, 0, 1, 0, 1, 0, 0]
% Step 6: Selected non-target node 6 (has 1 objects)
% Step 6: Avoiding backtrack to node 7
% Step 6: Moved object 6 -> 10
% Step 6: Distribution: [0, 0, 1, 0, 0, 0, 0, 1, 0, 1]
% Step 7: Selected non-target node 3 (has 1 objects)
% Step 7: Selected non-target node 10 (has 1 objects)
% Step 7: Moved object 10 -> 6
% Step 7: Distribution: [0, 0, 1, 0, 0, 1, 0, 1, 0, 0]
% Step 8: Selected non-target node 8 (has 1 objects)
% Step 8: Selected non-target node 3 (has 1 objects)
% Step 8: Selected non-target node 6 (has 1 objects)
% Step 8: Avoiding backtrack to node 10
% Step 8: Moved object 6 -> 7
% Step 8: Distribution: [0, 0, 1, 0, 0, 0, 1, 1, 0, 0]
% Step 9: Selected non-target node 3 (has 1 objects)
% Step 9: Selected non-target node 7 (has 1 objects)
% Step 9: Moved object 7 -> 6
% Step 9: Distribution: [0, 0, 1, 0, 0, 1, 0, 1, 0, 0]
% Step 10: Selected non-target node 6 (has 1 objects)
% Step 10: Avoiding backtrack to node 7
% Step 10: Moved object 6 -> 4
% Step 10: Distribution: [0, 0, 1, 1, 0, 0, 0, 1, 0, 0]
% Step 11: Selected non-target node 3 (has 1 objects)
% Step 11: Selected non-target node 4 (has 1 objects)
% Step 11: Moved object 4 -> 6
% Step 11: Distribution: [0, 0, 1, 0, 0, 1, 0, 1, 0, 0]
% Step 12: Selected non-target node 6 (has 1 objects)
% Step 12: Avoiding backtrack to node 4
% Step 12: Moved object 6 -> 7
% Step 12: Distribution: [0, 0, 1, 0, 0, 0, 1, 1, 0, 0]
% Step 13: Selected non-target node 3 (has 1 objects)
% Step 13: Selected non-target node 8 (has 1 objects)
% Step 13: Selected non-target node 7 (has 1 objects)
% Step 13: Moved object 7 -> 6
% Step 13: Distribution: [0, 0, 1, 0, 0, 1, 0, 1, 0, 0]
% Step 14: Selected non-target node 8 (has 1 objects)
% Step 14: Selected non-target node 3 (has 1 objects)
% Step 14: Selected non-target node 6 (has 1 objects)
% Step 14: Avoiding backtrack to node 7
% Step 14: Moved object 6 -> 10
% Step 14: Distribution: [0, 0, 1, 0, 0, 0, 0, 1, 0, 1]
% Step 15: Selected non-target node 3 (has 1 objects)
% Step 15: Selected non-target node 8 (has 1 objects)
% Step 15: Selected non-target node 10 (has 1 objects)
% Step 15: Moved object 10 -> 6
% Step 15: Distribution: [0, 0, 1, 0, 0, 1, 0, 1, 0, 0]
% Step 16: Selected non-target node 3 (has 1 objects)
% Step 16: Selected non-target node 8 (has 1 objects)
% Step 16: Selected non-target node 6 (has 1 objects)
% Step 16: Avoiding backtrack to node 10
% Step 16: Moved object 6 -> 4
% Step 16: Distribution: [0, 0, 1, 1, 0, 0, 0, 1, 0, 0]
% Step 17: Selected non-target node 3 (has 1 objects)
% Step 17: Selected non-target node 8 (has 1 objects)
% Step 17: Selected non-target node 4 (has 1 objects)
% Step 17: Moved object 4 -> 6
% Step 17: Distribution: [0, 0, 1, 0, 0, 1, 0, 1, 0, 0]
% Truck starting position: 10
