% instance_n18_c1_k11_i47.dzn
% Generated instance for the Trucks problem
% N=18, h=4, k=11

% Number of nodes
N = 18;

% Number of objects
h = 4;

% Maximum plan length
%k = 11;

% Adjacency matrix (0-based internal, will be converted to 1-based)
Adj = [|0, 0, 0, 0, 1, 0, 1, 1, 0, 0, 0, 0, 0, 1, 0, 1, 0, 0
      |0, 0, 0, 0, 0, 0, 0, 0, 0, 0, 0, 0, 0, 0, 0, 1, 0, 0
      |0, 0, 0, 1, 0, 0, 0, 0, 0, 0, 0, 0, 0, 0, 0, 0, 0, 1
      |0, 0, 1, 0, 0, 0, 0, 0, 0, 1, 0, 0, 0, 0, 0, 0, 0, 0
      |1, 0, 0, 0, 0, 0, 0, 0, 0, 0, 1, 0, 0, 0, 0, 1, 0, 0
      |0, 0, 0, 0, 0, 0, 0, 0, 0, 0, 0, 0, 0, 0, 1, 0, 0, 0
      |1, 0, 0, 0, 0, 0, 0, 0, 0, 0, 0, 1, 0, 0, 0, 0, 0, 0
      |1, 0, 0, 0, 0, 0, 0, 0, 1, 1, 0, 0, 0, 1, 0, 0, 0, 0
      |0, 0, 0, 0, 0, 0, 0, 1, 0, 1, 0, 0, 0, 0, 0, 0, 1, 0
      |0, 0, 0, 1, 0, 0, 0, 1, 1, 0, 0, 0, 0, 0, 0, 0, 0, 0
      |0, 0, 0, 0, 1, 0, 0, 0, 0, 0, 0, 1, 0, 0, 0, 0, 0, 0
      |0, 0, 0, 0, 0, 0, 1, 0, 0, 0, 1, 0, 0, 0, 0, 0, 0, 1
      |0, 0, 0, 0, 0, 0, 0, 0, 0, 0, 0, 0, 0, 0, 1, 0, 0, 0
      |1, 0, 0, 0, 0, 0, 0, 1, 0, 0, 0, 0, 0, 0, 1, 0, 0, 0
      |0, 0, 0, 0, 0, 1, 0, 0, 0, 0, 0, 0, 1, 1, 0, 0, 0, 0
      |1, 1, 0, 0, 1, 0, 0, 0, 0, 0, 0, 0, 0, 0, 0, 0, 0, 0
      |0, 0, 0, 0, 0, 0, 0, 0, 1, 0, 0, 0, 0, 0, 0, 0, 0, 0
      |0, 0, 1, 0, 0, 0, 0, 0, 0, 0, 0, 1, 0, 0, 0, 0, 0, 0
      |];

% Initial object distribution
S_init = [2, 0, 0, 1, 0, 0, 0, 0, 0, 0, 0, 0, 0, 1, 0, 0, 0, 0];

% Target nodes (1 if target, 0 otherwise)
T = [0, 1, 0, 0, 0, 0, 0, 0, 1, 0, 0, 1, 0, 0, 0, 0, 0, 0];

% Initial truck position (1-based indexing)
u = 13;

% --- DEBUG TRACE ---
% --- GENERATION TRACE (Backwards from Target) ---
% Initial distribution (all on targets): [0, 2, 0, 0, 0, 0, 0, 0, 1, 0, 0, 1, 0, 0, 0, 0, 0, 0]
% Step 1: Selected target node 2 (has 2 objects)
% Step 1: Moved object 2 -> 16
% Step 1: Distribution: [0, 1, 0, 0, 0, 0, 0, 0, 1, 0, 0, 1, 0, 0, 0, 1, 0, 0]
% Step 2: Selected target node 2 (has 1 objects)
% Step 2: Moved object 2 -> 16
% Step 2: Distribution: [0, 0, 0, 0, 0, 0, 0, 0, 1, 0, 0, 1, 0, 0, 0, 2, 0, 0]
% Step 3: Selected target node 12 (has 1 objects)
% Step 3: Moved object 12 -> 18
% Step 3: Distribution: [0, 0, 0, 0, 0, 0, 0, 0, 1, 0, 0, 0, 0, 0, 0, 2, 0, 1]
% Step 4: Selected target node 9 (has 1 objects)
% Step 4: Moved object 9 -> 8
% Step 4: Distribution: [0, 0, 0, 0, 0, 0, 0, 1, 0, 0, 0, 0, 0, 0, 0, 2, 0, 1]
% Step 5: Selected non-target node 18 (has 1 objects)
% Step 5: Avoiding backtrack to node 12
% Step 5: Moved object 18 -> 3
% Step 5: Distribution: [0, 0, 1, 0, 0, 0, 0, 1, 0, 0, 0, 0, 0, 0, 0, 2, 0, 0]
% Step 6: Selected non-target node 8 (has 1 objects)
% Step 6: Avoiding backtrack to node 9
% Step 6: Moved object 8 -> 1
% Step 6: Distribution: [1, 0, 1, 0, 0, 0, 0, 0, 0, 0, 0, 0, 0, 0, 0, 2, 0, 0]
% Step 7: Selected non-target node 16 (has 2 objects)
% Step 7: Avoiding backtrack to node 2
% Step 7: Moved object 16 -> 5
% Step 7: Distribution: [1, 0, 1, 0, 1, 0, 0, 0, 0, 0, 0, 0, 0, 0, 0, 1, 0, 0]
% Step 8: Selected non-target node 3 (has 1 objects)
% Step 8: Avoiding backtrack to node 18
% Step 8: Moved object 3 -> 4
% Step 8: Distribution: [1, 0, 0, 1, 1, 0, 0, 0, 0, 0, 0, 0, 0, 0, 0, 1, 0, 0]
% Step 9: Selected non-target node 5 (has 1 objects)
% Step 9: Avoiding backtrack to node 16
% Step 9: Moved object 5 -> 1
% Step 9: Distribution: [2, 0, 0, 1, 0, 0, 0, 0, 0, 0, 0, 0, 0, 0, 0, 1, 0, 0]
% Step 10: Selected non-target node 1 (has 2 objects)
% Step 10: Avoiding backtrack to node 5
% Step 10: Moved object 1 -> 14
% Step 10: Distribution: [1, 0, 0, 1, 0, 0, 0, 0, 0, 0, 0, 0, 0, 1, 0, 1, 0, 0]
% Step 11: Selected non-target node 16 (has 1 objects)
% Step 11: Avoiding backtrack to node 2
% Step 11: Moved object 16 -> 1
% Step 11: Distribution: [2, 0, 0, 1, 0, 0, 0, 0, 0, 0, 0, 0, 0, 1, 0, 0, 0, 0]
% Truck starting position: 13
