% instance_n14_c0_k5_i20.dzn
% Generated instance for the Trucks problem
% N=14, h=3, k=5

% Number of nodes
N = 14;

% Number of objects
h = 3;

% Maximum plan length
%k = 5;

% Adjacency matrix (0-based internal, will be converted to 1-based)
Adj = [|0, 1, 0, 1, 0, 0, 0, 0, 0, 0, 0, 1, 0, 1
      |1, 0, 0, 0, 0, 0, 0, 0, 0, 0, 0, 0, 0, 0
      |0, 0, 0, 0, 0, 0, 0, 0, 0, 0, 1, 1, 0, 0
      |1, 0, 0, 0, 0, 1, 0, 0, 0, 0, 0, 0, 0, 0
      |0, 0, 0, 0, 0, 1, 0, 0, 1, 0, 0, 0, 0, 1
      |0, 0, 0, 1, 1, 0, 0, 0, 0, 0, 0, 0, 1, 1
      |0, 0, 0, 0, 0, 0, 0, 0, 1, 0, 0, 0, 0, 0
      |0, 0, 0, 0, 0, 0, 0, 0, 1, 0, 0, 0, 0, 0
      |0, 0, 0, 0, 1, 0, 1, 1, 0, 0, 0, 0, 1, 0
      |0, 0, 0, 0, 0, 0, 0, 0, 0, 0, 1, 0, 0, 0
      |0, 0, 1, 0, 0, 0, 0, 0, 0, 1, 0, 0, 0, 0
      |1, 0, 1, 0, 0, 0, 0, 0, 0, 0, 0, 0, 0, 0
      |0, 0, 0, 0, 0, 1, 0, 0, 1, 0, 0, 0, 0, 1
      |1, 0, 0, 0, 1, 1, 0, 0, 0, 0, 0, 0, 1, 0
      |];

% Initial object distribution
S_init = [1, 0, 0, 0, 0, 0, 1, 0, 0, 1, 0, 0, 0, 0];

% Target nodes (1 if target, 0 otherwise)
T = [0, 0, 1, 0, 0, 0, 0, 1, 0, 0, 1, 0, 0, 0];

% Initial truck position (1-based indexing)
u = 12;

% --- DEBUG TRACE ---
% --- GENERATION TRACE (Backwards from Target) ---
% Initial distribution (all on targets): [0, 0, 1, 0, 0, 0, 0, 1, 0, 0, 1, 0, 0, 0]
% Step 1: Selected target node 8 (has 1 objects)
% Step 1: Moved object 8 -> 9
% Step 1: Distribution: [0, 0, 1, 0, 0, 0, 0, 0, 1, 0, 1, 0, 0, 0]
% Step 2: Selected target node 11 (has 1 objects)
% Step 2: Moved object 11 -> 10
% Step 2: Distribution: [0, 0, 1, 0, 0, 0, 0, 0, 1, 1, 0, 0, 0, 0]
% Step 3: Selected target node 3 (has 1 objects)
% Step 3: Moved object 3 -> 12
% Step 3: Distribution: [0, 0, 0, 0, 0, 0, 0, 0, 1, 1, 0, 1, 0, 0]
% Step 4: Selected non-target node 9 (has 1 objects)
% Step 4: Avoiding backtrack to node 8
% Step 4: Moved object 9 -> 7
% Step 4: Distribution: [0, 0, 0, 0, 0, 0, 1, 0, 0, 1, 0, 1, 0, 0]
% Step 5: Selected non-target node 10 (has 1 objects)
% Step 5: Selected non-target node 12 (has 1 objects)
% Step 5: Avoiding backtrack to node 3
% Step 5: Moved object 12 -> 1
% Step 5: Distribution: [1, 0, 0, 0, 0, 0, 1, 0, 0, 1, 0, 0, 0, 0]
% Truck starting position: 12
