% instance_n14_c1_k14_i28.dzn
% Generated instance for the Trucks problem
% N=14, h=3, k=14

% Number of nodes
N = 14;

% Number of objects
h = 3;

% Maximum plan length
%k = 14;

% Adjacency matrix (0-based internal, will be converted to 1-based)
Adj = [|0, 0, 0, 0, 0, 0, 0, 1, 1, 0, 1, 0, 0, 1
      |0, 0, 0, 0, 0, 0, 1, 0, 0, 0, 0, 0, 0, 0
      |0, 0, 0, 0, 1, 0, 0, 1, 0, 0, 1, 0, 0, 0
      |0, 0, 0, 0, 0, 0, 1, 0, 0, 0, 1, 0, 0, 0
      |0, 0, 1, 0, 0, 1, 0, 0, 0, 0, 0, 0, 1, 0
      |0, 0, 0, 0, 1, 0, 0, 0, 0, 0, 1, 0, 0, 0
      |0, 1, 0, 1, 0, 0, 0, 0, 0, 0, 0, 0, 0, 0
      |1, 0, 1, 0, 0, 0, 0, 0, 0, 0, 0, 1, 0, 1
      |1, 0, 0, 0, 0, 0, 0, 0, 0, 0, 0, 0, 0, 1
      |0, 0, 0, 0, 0, 0, 0, 0, 0, 0, 1, 0, 0, 0
      |1, 0, 1, 1, 0, 1, 0, 0, 0, 1, 0, 0, 0, 0
      |0, 0, 0, 0, 0, 0, 0, 1, 0, 0, 0, 0, 0, 0
      |0, 0, 0, 0, 1, 0, 0, 0, 0, 0, 0, 0, 0, 0
      |1, 0, 0, 0, 0, 0, 0, 1, 1, 0, 0, 0, 0, 0
      |];

% Initial object distribution
S_init = [2, 0, 0, 0, 0, 0, 0, 0, 0, 0, 1, 0, 0, 0];

% Target nodes (1 if target, 0 otherwise)
T = [0, 0, 0, 0, 1, 0, 0, 0, 1, 1, 0, 0, 0, 0];

% Initial truck position (1-based indexing)
u = 12;

% --- DEBUG TRACE ---
% --- GENERATION TRACE (Backwards from Target) ---
% Initial distribution (all on targets): [0, 0, 0, 0, 1, 0, 0, 0, 1, 1, 0, 0, 0, 0]
% Step 1: Selected target node 5 (has 1 objects)
% Step 1: Moved object 5 -> 6
% Step 1: Distribution: [0, 0, 0, 0, 0, 1, 0, 0, 1, 1, 0, 0, 0, 0]
% Step 2: Selected target node 9 (has 1 objects)
% Step 2: Moved object 9 -> 1
% Step 2: Distribution: [1, 0, 0, 0, 0, 1, 0, 0, 0, 1, 0, 0, 0, 0]
% Step 3: Selected target node 10 (has 1 objects)
% Step 3: Moved object 10 -> 11
% Step 3: Distribution: [1, 0, 0, 0, 0, 1, 0, 0, 0, 0, 1, 0, 0, 0]
% Step 4: Selected non-target node 11 (has 1 objects)
% Step 4: Avoiding backtrack to node 10
% Step 4: Moved object 11 -> 4
% Step 4: Distribution: [1, 0, 0, 1, 0, 1, 0, 0, 0, 0, 0, 0, 0, 0]
% Step 5: Selected non-target node 4 (has 1 objects)
% Step 5: Avoiding backtrack to node 11
% Step 5: Moved object 4 -> 7
% Step 5: Distribution: [1, 0, 0, 0, 0, 1, 1, 0, 0, 0, 0, 0, 0, 0]
% Step 6: Selected non-target node 7 (has 1 objects)
% Step 6: Avoiding backtrack to node 4
% Step 6: Moved object 7 -> 2
% Step 6: Distribution: [1, 1, 0, 0, 0, 1, 0, 0, 0, 0, 0, 0, 0, 0]
% Step 7: Selected non-target node 6 (has 1 objects)
% Step 7: Avoiding backtrack to node 5
% Step 7: Moved object 6 -> 11
% Step 7: Distribution: [1, 1, 0, 0, 0, 0, 0, 0, 0, 0, 1, 0, 0, 0]
% Step 8: Selected non-target node 2 (has 1 objects)
% Step 8: Moved object 2 -> 7
% Step 8: Distribution: [1, 0, 0, 0, 0, 0, 1, 0, 0, 0, 1, 0, 0, 0]
% Step 9: Selected non-target node 11 (has 1 objects)
% Step 9: Avoiding backtrack to node 6
% Step 9: Moved object 11 -> 1
% Step 9: Distribution: [2, 0, 0, 0, 0, 0, 1, 0, 0, 0, 0, 0, 0, 0]
% Step 10: Selected non-target node 1 (has 2 objects)
% Step 10: Avoiding backtrack to node 11
% Step 10: Moved object 1 -> 8
% Step 10: Distribution: [1, 0, 0, 0, 0, 0, 1, 1, 0, 0, 0, 0, 0, 0]
% Step 11: Selected non-target node 7 (has 1 objects)
% Step 11: Avoiding backtrack to node 2
% Step 11: Moved object 7 -> 4
% Step 11: Distribution: [1, 0, 0, 1, 0, 0, 0, 1, 0, 0, 0, 0, 0, 0]
% Step 12: Selected non-target node 8 (has 1 objects)
% Step 12: Avoiding backtrack to node 1
% Step 12: Moved object 8 -> 14
% Step 12: Distribution: [1, 0, 0, 1, 0, 0, 0, 0, 0, 0, 0, 0, 0, 1]
% Step 13: Selected non-target node 4 (has 1 objects)
% Step 13: Avoiding backtrack to node 7
% Step 13: Moved object 4 -> 11
% Step 13: Distribution: [1, 0, 0, 0, 0, 0, 0, 0, 0, 0, 1, 0, 0, 1]
% Step 14: Selected non-target node 14 (has 1 objects)
% Step 14: Avoiding backtrack to node 8
% Step 14: Moved object 14 -> 1
% Step 14: Distribution: [2, 0, 0, 0, 0, 0, 0, 0, 0, 0, 1, 0, 0, 0]
% Truck starting position: 12
