% instance_n14_c2_k5_i30.dzn
% Generated instance for the Trucks problem
% N=14, h=3, k=5

% Number of nodes
N = 14;

% Number of objects
h = 3;

% Maximum plan length
%k = 5;

% Adjacency matrix (0-based internal, will be converted to 1-based)
Adj = [|0, 0, 0, 0, 1, 0, 0, 0, 0, 0, 0, 1, 0, 1
      |0, 0, 1, 1, 0, 0, 0, 0, 0, 1, 0, 1, 1, 0
      |0, 1, 0, 0, 0, 0, 0, 0, 0, 0, 0, 0, 0, 0
      |0, 1, 0, 0, 0, 0, 0, 0, 1, 0, 0, 0, 0, 0
      |1, 0, 0, 0, 0, 0, 0, 0, 0, 0, 0, 0, 0, 0
      |0, 0, 0, 0, 0, 0, 0, 0, 0, 0, 0, 1, 0, 0
      |0, 0, 0, 0, 0, 0, 0, 1, 1, 1, 0, 0, 0, 1
      |0, 0, 0, 0, 0, 0, 1, 0, 0, 0, 0, 1, 0, 0
      |0, 0, 0, 1, 0, 0, 1, 0, 0, 1, 0, 1, 0, 0
      |0, 1, 0, 0, 0, 0, 1, 0, 1, 0, 0, 0, 0, 0
      |0, 0, 0, 0, 0, 0, 0, 0, 0, 0, 0, 1, 0, 0
      |1, 1, 0, 0, 0, 1, 0, 1, 1, 0, 1, 0, 0, 0
      |0, 1, 0, 0, 0, 0, 0, 0, 0, 0, 0, 0, 0, 0
      |1, 0, 0, 0, 0, 0, 1, 0, 0, 0, 0, 0, 0, 0
      |];

% Initial object distribution
S_init = [0, 1, 0, 1, 0, 0, 0, 0, 1, 0, 0, 0, 0, 0];

% Target nodes (1 if target, 0 otherwise)
T = [0, 0, 1, 0, 0, 0, 0, 0, 0, 0, 1, 0, 1, 0];

% Initial truck position (1-based indexing)
u = 2;

% --- DEBUG TRACE ---
% --- GENERATION TRACE (Backwards from Target) ---
% Initial distribution (all on targets): [0, 0, 1, 0, 0, 0, 0, 0, 0, 0, 1, 0, 1, 0]
% Step 1: Selected target node 13 (has 1 objects)
% Step 1: Moved object 13 -> 2
% Step 1: Distribution: [0, 1, 1, 0, 0, 0, 0, 0, 0, 0, 1, 0, 0, 0]
% Step 2: Selected target node 11 (has 1 objects)
% Step 2: Moved object 11 -> 12
% Step 2: Distribution: [0, 1, 1, 0, 0, 0, 0, 0, 0, 0, 0, 1, 0, 0]
% Step 3: Selected target node 3 (has 1 objects)
% Step 3: Moved object 3 -> 2
% Step 3: Distribution: [0, 2, 0, 0, 0, 0, 0, 0, 0, 0, 0, 1, 0, 0]
% Step 4: Selected non-target node 12 (has 1 objects)
% Step 4: Avoiding backtrack to node 11
% Step 4: Moved object 12 -> 9
% Step 4: Distribution: [0, 2, 0, 0, 0, 0, 0, 0, 1, 0, 0, 0, 0, 0]
% Step 5: Selected non-target node 2 (has 2 objects)
% Step 5: Avoiding backtrack to node 3
% Step 5: Moved object 2 -> 4
% Step 5: Distribution: [0, 1, 0, 1, 0, 0, 0, 0, 1, 0, 0, 0, 0, 0]
% Truck starting position: 2
