% instance_n14_c1_k8_i26.dzn
% Generated instance for the Trucks problem
% N=14, h=3, k=8

% Number of nodes
N = 14;

% Number of objects
h = 3;

% Maximum plan length
%k = 8;

% Adjacency matrix (0-based internal, will be converted to 1-based)
Adj = [|0, 0, 0, 1, 0, 1, 1, 0, 0, 0, 0, 0, 0, 0
      |0, 0, 1, 0, 1, 0, 0, 1, 0, 0, 0, 0, 0, 0
      |0, 1, 0, 0, 0, 0, 0, 0, 0, 1, 0, 0, 0, 0
      |1, 0, 0, 0, 1, 0, 0, 0, 1, 0, 0, 1, 0, 0
      |0, 1, 0, 1, 0, 0, 0, 0, 0, 0, 0, 0, 0, 1
      |1, 0, 0, 0, 0, 0, 0, 0, 0, 0, 0, 0, 0, 1
      |1, 0, 0, 0, 0, 0, 0, 0, 1, 0, 0, 0, 0, 0
      |0, 1, 0, 0, 0, 0, 0, 0, 0, 0, 0, 0, 0, 0
      |0, 0, 0, 1, 0, 0, 1, 0, 0, 0, 0, 0, 1, 0
      |0, 0, 1, 0, 0, 0, 0, 0, 0, 0, 0, 0, 0, 0
      |0, 0, 0, 0, 0, 0, 0, 0, 0, 0, 0, 1, 0, 0
      |0, 0, 0, 1, 0, 0, 0, 0, 0, 0, 1, 0, 0, 0
      |0, 0, 0, 0, 0, 0, 0, 0, 1, 0, 0, 0, 0, 1
      |0, 0, 0, 0, 1, 1, 0, 0, 0, 0, 0, 0, 1, 0
      |];

% Initial object distribution
S_init = [0, 0, 0, 0, 0, 0, 1, 1, 0, 0, 0, 0, 0, 1];

% Target nodes (1 if target, 0 otherwise)
T = [1, 0, 0, 0, 0, 0, 1, 0, 1, 0, 0, 0, 0, 0];

% Initial truck position (1-based indexing)
u = 4;

% --- DEBUG TRACE ---
% --- GENERATION TRACE (Backwards from Target) ---
% Initial distribution (all on targets): [1, 0, 0, 0, 0, 0, 1, 0, 1, 0, 0, 0, 0, 0]
% Step 1: Selected target node 9 (has 1 objects)
% Step 1: Moved object 9 -> 4
% Step 1: Distribution: [1, 0, 0, 1, 0, 0, 1, 0, 0, 0, 0, 0, 0, 0]
% Step 2: Selected target node 1 (has 1 objects)
% Step 2: Moved object 1 -> 6
% Step 2: Distribution: [0, 0, 0, 1, 0, 1, 1, 0, 0, 0, 0, 0, 0, 0]
% Step 3: Selected target node 7 (has 1 objects)
% Step 3: Selected non-target node 6 (has 1 objects)
% Step 3: Avoiding backtrack to node 1
% Step 3: Moved object 6 -> 14
% Step 3: Distribution: [0, 0, 0, 1, 0, 0, 1, 0, 0, 0, 0, 0, 0, 1]
% Step 4: Selected target node 7 (has 1 objects)
% Step 4: Selected non-target node 14 (has 1 objects)
% Step 4: Avoiding backtrack to node 6
% Step 4: Moved object 14 -> 13
% Step 4: Distribution: [0, 0, 0, 1, 0, 0, 1, 0, 0, 0, 0, 0, 1, 0]
% Step 5: Selected target node 7 (has 1 objects)
% Step 5: Selected non-target node 4 (has 1 objects)
% Step 5: Avoiding backtrack to node 9
% Step 5: Moved object 4 -> 5
% Step 5: Distribution: [0, 0, 0, 0, 1, 0, 1, 0, 0, 0, 0, 0, 1, 0]
% Step 6: Selected target node 7 (has 1 objects)
% Step 6: Selected non-target node 5 (has 1 objects)
% Step 6: Avoiding backtrack to node 4
% Step 6: Moved object 5 -> 2
% Step 6: Distribution: [0, 1, 0, 0, 0, 0, 1, 0, 0, 0, 0, 0, 1, 0]
% Step 7: Selected target node 7 (has 1 objects)
% Step 7: Selected non-target node 2 (has 1 objects)
% Step 7: Avoiding backtrack to node 5
% Step 7: Moved object 2 -> 8
% Step 7: Distribution: [0, 0, 0, 0, 0, 0, 1, 1, 0, 0, 0, 0, 1, 0]
% Step 8: Selected target node 7 (has 1 objects)
% Step 8: Selected non-target node 13 (has 1 objects)
% Step 8: Moved object 13 -> 14
% Step 8: Distribution: [0, 0, 0, 0, 0, 0, 1, 1, 0, 0, 0, 0, 0, 1]
% Truck starting position: 4
