% instance_n18_c3_k14_i58.dzn
% Generated instance for the Trucks problem
% N=18, h=4, k=14

% Number of nodes
N = 18;

% Number of objects
h = 4;

% Maximum plan length
%k = 14;

% Adjacency matrix (0-based internal, will be converted to 1-based)
Adj = [|0, 0, 0, 0, 1, 1, 1, 0, 0, 0, 0, 1, 0, 1, 0, 0, 0, 1
      |0, 0, 0, 0, 0, 0, 1, 0, 0, 1, 0, 0, 0, 0, 0, 0, 0, 0
      |0, 0, 0, 0, 0, 0, 0, 0, 1, 0, 0, 0, 0, 0, 0, 0, 1, 0
      |0, 0, 0, 0, 0, 0, 0, 0, 0, 0, 0, 0, 0, 0, 1, 0, 0, 0
      |1, 0, 0, 0, 0, 0, 0, 0, 0, 0, 0, 0, 0, 0, 1, 0, 0, 0
      |1, 0, 0, 0, 0, 0, 0, 0, 0, 0, 0, 0, 0, 0, 0, 0, 0, 0
      |1, 1, 0, 0, 0, 0, 0, 0, 0, 0, 1, 0, 0, 0, 0, 0, 0, 0
      |0, 0, 0, 0, 0, 0, 0, 0, 0, 0, 1, 0, 0, 0, 0, 0, 0, 0
      |0, 0, 1, 0, 0, 0, 0, 0, 0, 0, 0, 0, 0, 0, 0, 0, 0, 0
      |0, 1, 0, 0, 0, 0, 0, 0, 0, 0, 0, 0, 0, 1, 0, 1, 1, 0
      |0, 0, 0, 0, 0, 0, 1, 1, 0, 0, 0, 0, 1, 0, 0, 1, 0, 0
      |1, 0, 0, 0, 0, 0, 0, 0, 0, 0, 0, 0, 0, 0, 0, 0, 0, 0
      |0, 0, 0, 0, 0, 0, 0, 0, 0, 0, 1, 0, 0, 0, 0, 0, 0, 0
      |1, 0, 0, 0, 0, 0, 0, 0, 0, 1, 0, 0, 0, 0, 1, 0, 0, 0
      |0, 0, 0, 1, 1, 0, 0, 0, 0, 0, 0, 0, 0, 1, 0, 1, 0, 1
      |0, 0, 0, 0, 0, 0, 0, 0, 0, 1, 1, 0, 0, 0, 1, 0, 0, 0
      |0, 0, 1, 0, 0, 0, 0, 0, 0, 1, 0, 0, 0, 0, 0, 0, 0, 1
      |1, 0, 0, 0, 0, 0, 0, 0, 0, 0, 0, 0, 0, 0, 1, 0, 1, 0
      |];

% Initial object distribution
S_init = [1, 0, 0, 0, 0, 0, 0, 0, 0, 0, 0, 0, 0, 0, 2, 0, 0, 1];

% Target nodes (1 if target, 0 otherwise)
T = [0, 0, 0, 0, 0, 1, 0, 0, 0, 1, 0, 1, 0, 0, 0, 0, 0, 0];

% Initial truck position (1-based indexing)
u = 17;

% --- DEBUG TRACE ---
% --- GENERATION TRACE (Backwards from Target) ---
% Initial distribution (all on targets): [0, 0, 0, 0, 0, 2, 0, 0, 0, 1, 0, 1, 0, 0, 0, 0, 0, 0]
% Step 1: Selected target node 12 (has 1 objects)
% Step 1: Moved object 12 -> 1
% Step 1: Distribution: [1, 0, 0, 0, 0, 2, 0, 0, 0, 1, 0, 0, 0, 0, 0, 0, 0, 0]
% Step 2: Selected target node 10 (has 1 objects)
% Step 2: Moved object 10 -> 14
% Step 2: Distribution: [1, 0, 0, 0, 0, 2, 0, 0, 0, 0, 0, 0, 0, 1, 0, 0, 0, 0]
% Step 3: Selected target node 6 (has 2 objects)
% Step 3: Moved object 6 -> 1
% Step 3: Distribution: [2, 0, 0, 0, 0, 1, 0, 0, 0, 0, 0, 0, 0, 1, 0, 0, 0, 0]
% Step 4: Selected target node 6 (has 1 objects)
% Step 4: Moved object 6 -> 1
% Step 4: Distribution: [3, 0, 0, 0, 0, 0, 0, 0, 0, 0, 0, 0, 0, 1, 0, 0, 0, 0]
% Step 5: Selected non-target node 14 (has 1 objects)
% Step 5: Avoiding backtrack to node 10
% Step 5: Moved object 14 -> 1
% Step 5: Distribution: [4, 0, 0, 0, 0, 0, 0, 0, 0, 0, 0, 0, 0, 0, 0, 0, 0, 0]
% Step 6: Selected non-target node 1 (has 4 objects)
% Step 6: Avoiding backtrack to node 14
% Step 6: Moved object 1 -> 7
% Step 6: Distribution: [3, 0, 0, 0, 0, 0, 1, 0, 0, 0, 0, 0, 0, 0, 0, 0, 0, 0]
% Step 7: Selected non-target node 1 (has 3 objects)
% Step 7: Avoiding backtrack to node 14
% Step 7: Moved object 1 -> 18
% Step 7: Distribution: [2, 0, 0, 0, 0, 0, 1, 0, 0, 0, 0, 0, 0, 0, 0, 0, 0, 1]
% Step 8: Selected non-target node 18 (has 1 objects)
% Step 8: Avoiding backtrack to node 1
% Step 8: Moved object 18 -> 15
% Step 8: Distribution: [2, 0, 0, 0, 0, 0, 1, 0, 0, 0, 0, 0, 0, 0, 1, 0, 0, 0]
% Step 9: Selected non-target node 7 (has 1 objects)
% Step 9: Avoiding backtrack to node 1
% Step 9: Moved object 7 -> 11
% Step 9: Distribution: [2, 0, 0, 0, 0, 0, 0, 0, 0, 0, 1, 0, 0, 0, 1, 0, 0, 0]
% Step 10: Selected non-target node 11 (has 1 objects)
% Step 10: Avoiding backtrack to node 7
% Step 10: Moved object 11 -> 16
% Step 10: Distribution: [2, 0, 0, 0, 0, 0, 0, 0, 0, 0, 0, 0, 0, 0, 1, 1, 0, 0]
% Step 11: Selected non-target node 16 (has 1 objects)
% Step 11: Avoiding backtrack to node 11
% Step 11: Moved object 16 -> 15
% Step 11: Distribution: [2, 0, 0, 0, 0, 0, 0, 0, 0, 0, 0, 0, 0, 0, 2, 0, 0, 0]
% Step 12: Selected non-target node 1 (has 2 objects)
% Step 12: Avoiding backtrack to node 14
% Step 12: Moved object 1 -> 5
% Step 12: Distribution: [1, 0, 0, 0, 1, 0, 0, 0, 0, 0, 0, 0, 0, 0, 2, 0, 0, 0]
% Step 13: Selected non-target node 5 (has 1 objects)
% Step 13: Avoiding backtrack to node 1
% Step 13: Moved object 5 -> 15
% Step 13: Distribution: [1, 0, 0, 0, 0, 0, 0, 0, 0, 0, 0, 0, 0, 0, 3, 0, 0, 0]
% Step 14: Selected non-target node 15 (has 3 objects)
% Step 14: Avoiding backtrack to node 5
% Step 14: Moved object 15 -> 18
% Step 14: Distribution: [1, 0, 0, 0, 0, 0, 0, 0, 0, 0, 0, 0, 0, 0, 2, 0, 0, 1]
% Truck starting position: 17
