% instance_n10_c2_k5_i10.dzn
% Generated instance for the Trucks problem
% N=10, h=3, k=5

% Number of nodes
N = 10;

% Number of objects
h = 3;

% Maximum plan length
%k = 5;

% Adjacency matrix (0-based internal, will be converted to 1-based)
Adj = [|0, 0, 0, 0, 1, 1, 0, 1, 1, 0
      |0, 0, 0, 0, 1, 0, 0, 0, 0, 1
      |0, 0, 0, 0, 0, 0, 1, 1, 0, 0
      |0, 0, 0, 0, 0, 0, 0, 1, 1, 0
      |1, 1, 0, 0, 0, 0, 0, 0, 0, 0
      |1, 0, 0, 0, 0, 0, 0, 1, 0, 0
      |0, 0, 1, 0, 0, 0, 0, 0, 1, 0
      |1, 0, 1, 1, 0, 1, 0, 0, 0, 0
      |1, 0, 0, 1, 0, 0, 1, 0, 0, 0
      |0, 1, 0, 0, 0, 0, 0, 0, 0, 0
      |];

% Initial object distribution
S_init = [0, 0, 0, 0, 2, 0, 0, 1, 0, 0];

% Target nodes (1 if target, 0 otherwise)
T = [1, 1, 0, 0, 0, 0, 0, 0, 1, 0];

% Initial truck position (1-based indexing)
u = 10;

% --- DEBUG TRACE ---
% --- GENERATION TRACE (Backwards from Target) ---
% Initial distribution (all on targets): [1, 1, 0, 0, 0, 0, 0, 0, 1, 0]
% Step 1: Selected target node 2 (has 1 objects)
% Step 1: Moved object 2 -> 5
% Step 1: Distribution: [1, 0, 0, 0, 1, 0, 0, 0, 1, 0]
% Step 2: Selected target node 1 (has 1 objects)
% Step 2: Moved object 1 -> 5
% Step 2: Distribution: [0, 0, 0, 0, 2, 0, 0, 0, 1, 0]
% Step 3: Selected target node 9 (has 1 objects)
% Step 3: Moved object 9 -> 7
% Step 3: Distribution: [0, 0, 0, 0, 2, 0, 1, 0, 0, 0]
% Step 4: Selected non-target node 5 (has 2 objects)
% Step 4: Selected non-target node 7 (has 1 objects)
% Step 4: Avoiding backtrack to node 9
% Step 4: Moved object 7 -> 3
% Step 4: Distribution: [0, 0, 1, 0, 2, 0, 0, 0, 0, 0]
% Step 5: Selected non-target node 5 (has 2 objects)
% Step 5: Selected non-target node 3 (has 1 objects)
% Step 5: Avoiding backtrack to node 7
% Step 5: Moved object 3 -> 8
% Step 5: Distribution: [0, 0, 0, 0, 2, 0, 0, 1, 0, 0]
% Truck starting position: 10
